! HP 8753 S11 Measurement
! Created: 2026-09-27 17:32:02
! Number of points: 801
! Start frequency: 300.000000000 MHz
! Stop frequency: 1500.000000000 MHz
# MHz S RI R 50
3.000000000e+02  9.956665039e-01  -2.145996094e-01
3.015000000e+02  9.955444336e-01  -2.171020508e-01
3.030000000e+02  9.960937500e-01  -2.178344727e-01
3.045000000e+02  9.947814941e-01  -2.169799805e-01
3.060000000e+02  9.934082031e-01  -2.180480957e-01
3.075000000e+02  9.937744141e-01  -2.196044922e-01
3.090000000e+02  9.942932129e-01  -2.222595215e-01
3.105000000e+02  9.931640625e-01  -2.218933105e-01
3.120000000e+02  9.925842285e-01  -2.244567871e-01
3.135000000e+02  9.923095703e-01  -2.246398926e-01
3.150000000e+02  9.915771484e-01  -2.268066406e-01
3.165000000e+02  9.933471680e-01  -2.266845703e-01
3.180000000e+02  9.934692383e-01  -2.297363281e-01
3.195000000e+02  9.936523438e-01  -2.295532227e-01
3.210000000e+02  9.927978516e-01  -2.302246094e-01
3.225000000e+02  9.919433594e-01  -2.313232422e-01
3.240000000e+02  9.917602539e-01  -2.316284180e-01
3.255000000e+02  9.927368164e-01  -2.355346680e-01
3.270000000e+02  9.914550781e-01  -2.340698242e-01
3.285000000e+02  9.934082031e-01  -2.357177734e-01
3.300000000e+02  9.917602539e-01  -2.352905273e-01
3.315000000e+02  9.913330078e-01  -2.360839844e-01
3.330000000e+02  9.910278320e-01  -2.369384766e-01
3.345000000e+02  9.901733398e-01  -2.396850586e-01
3.360000000e+02  9.901123047e-01  -2.385253906e-01
3.375000000e+02  9.894714355e-01  -2.390136719e-01
3.390000000e+02  9.904785156e-01  -2.426452637e-01
3.405000000e+02  9.906005859e-01  -2.437133789e-01
3.420000000e+02  9.910278320e-01  -2.434692383e-01
3.435000000e+02  9.901733398e-01  -2.444458008e-01
3.450000000e+02  9.910888672e-01  -2.464599609e-01
3.465000000e+02  9.907226562e-01  -2.482299805e-01
3.480000000e+02  9.895629883e-01  -2.489013672e-01
3.495000000e+02  9.889526367e-01  -2.490844727e-01
3.510000000e+02  9.893188477e-01  -2.502441406e-01
3.525000000e+02  9.906005859e-01  -2.498168945e-01
3.540000000e+02  9.897460938e-01  -2.551879883e-01
3.555000000e+02  9.879760742e-01  -2.554931641e-01
3.570000000e+02  9.889526367e-01  -2.553100586e-01
3.585000000e+02  9.873046875e-01  -2.593383789e-01
3.600000000e+02  9.895629883e-01  -2.587890625e-01
3.615000000e+02  9.879760742e-01  -2.597656250e-01
3.630000000e+02  9.859619141e-01  -2.611083984e-01
3.645000000e+02  9.857788086e-01  -2.620544434e-01
3.660000000e+02  9.851989746e-01  -2.633666992e-01
3.675000000e+02  9.841613770e-01  -2.652893066e-01
3.690000000e+02  9.849548340e-01  -2.674255371e-01
3.705000000e+02  9.836730957e-01  -2.691345215e-01
3.720000000e+02  9.853515625e-01  -2.666015625e-01
3.735000000e+02  9.834899902e-01  -2.709045410e-01
3.750000000e+02  9.834899902e-01  -2.736511230e-01
3.765000000e+02  9.832153320e-01  -2.751464844e-01
3.780000000e+02  9.816894531e-01  -2.755737305e-01
3.795000000e+02  9.821166992e-01  -2.766723633e-01
3.810000000e+02  9.812011719e-01  -2.788085938e-01
3.825000000e+02  9.812011719e-01  -2.827758789e-01
3.840000000e+02  9.818725586e-01  -2.824707031e-01
3.855000000e+02  9.805908203e-01  -2.844238281e-01
3.870000000e+02  9.786987305e-01  -2.866821289e-01
3.885000000e+02  9.782714844e-01  -2.879638672e-01
3.900000000e+02  9.754638672e-01  -2.899169922e-01
3.915000000e+02  9.776000977e-01  -2.933349609e-01
3.930000000e+02  9.777832031e-01  -2.961425781e-01
3.945000000e+02  9.755249023e-01  -2.949829102e-01
3.960000000e+02  9.738159180e-01  -2.976684570e-01
3.975000000e+02  9.745483398e-01  -3.007202148e-01
3.990000000e+02  9.730834961e-01  -3.018188477e-01
4.005000000e+02  9.744873047e-01  -3.036499023e-01
4.020000000e+02  9.711303711e-01  -3.075561523e-01
4.035000000e+02  9.711303711e-01  -3.100585938e-01
4.050000000e+02  9.701538086e-01  -3.101806641e-01
4.065000000e+02  9.705200195e-01  -3.137207031e-01
4.080000000e+02  9.686279297e-01  -3.158569336e-01
4.095000000e+02  9.692993164e-01  -3.193359375e-01
4.110000000e+02  9.664306641e-01  -3.201293945e-01
4.125000000e+02  9.639282227e-01  -3.217163086e-01
4.140000000e+02  9.663696289e-01  -3.237915039e-01
4.155000000e+02  9.613647461e-01  -3.267211914e-01
4.170000000e+02  9.616088867e-01  -3.297119141e-01
4.185000000e+02  9.592895508e-01  -3.306274414e-01
4.200000000e+02  9.605102539e-01  -3.322753906e-01
4.215000000e+02  9.590454102e-01  -3.343505859e-01
4.230000000e+02  9.591064453e-01  -3.363647461e-01
4.245000000e+02  9.555969238e-01  -3.375854492e-01
4.260000000e+02  9.564514160e-01  -3.407897949e-01
4.275000000e+02  9.542846680e-01  -3.414611816e-01
4.290000000e+02  9.520263672e-01  -3.446044922e-01
4.305000000e+02  9.509277344e-01  -3.450317383e-01
4.320000000e+02  9.535827637e-01  -3.460693359e-01
4.335000000e+02  9.500122070e-01  -3.501586914e-01
4.350000000e+02  9.495239258e-01  -3.520812988e-01
4.365000000e+02  9.503173828e-01  -3.528442383e-01
4.380000000e+02  9.481506348e-01  -3.547058105e-01
4.395000000e+02  9.477539062e-01  -3.565673828e-01
4.410000000e+02  9.481811523e-01  -3.584594727e-01
4.425000000e+02  9.468383789e-01  -3.587646484e-01
4.440000000e+02  9.468994141e-01  -3.617553711e-01
4.455000000e+02  9.469604492e-01  -3.600463867e-01
4.470000000e+02  9.465942383e-01  -3.654174805e-01
4.485000000e+02  9.432983398e-01  -3.659057617e-01
4.500000000e+02  9.431762695e-01  -3.686523438e-01
4.515000000e+02  9.425048828e-01  -3.706054688e-01
4.530000000e+02  9.434204102e-01  -3.713989258e-01
4.545000000e+02  9.425048828e-01  -3.734130859e-01
4.560000000e+02  9.423217773e-01  -3.754882812e-01
4.575000000e+02  9.407958984e-01  -3.775634766e-01
4.590000000e+02  9.399414062e-01  -3.793334961e-01
4.605000000e+02  9.381103516e-01  -3.807983398e-01
4.620000000e+02  9.396057129e-01  -3.814697266e-01
4.635000000e+02  9.381713867e-01  -3.830566406e-01
4.650000000e+02  9.385375977e-01  -3.849487305e-01
4.665000000e+02  9.360961914e-01  -3.877563477e-01
4.680000000e+02  9.362182617e-01  -3.878173828e-01
4.695000000e+02  9.367675781e-01  -3.902587891e-01
4.710000000e+02  9.359741211e-01  -3.919067383e-01
4.725000000e+02  9.335937500e-01  -3.930664062e-01
4.740000000e+02  9.350585938e-01  -3.954467773e-01
4.755000000e+02  9.340820312e-01  -3.965454102e-01
4.770000000e+02  9.326171875e-01  -4.002685547e-01
4.785000000e+02  9.331054688e-01  -4.017944336e-01
4.800000000e+02  9.315795898e-01  -4.003295898e-01
4.815000000e+02  9.307250977e-01  -4.041137695e-01
4.830000000e+02  9.290771484e-01  -4.042968750e-01
4.845000000e+02  9.296264648e-01  -4.074707031e-01
4.860000000e+02  9.292297363e-01  -4.068298340e-01
4.875000000e+02  9.299621582e-01  -4.081115723e-01
4.890000000e+02  9.290771484e-01  -4.087219238e-01
4.905000000e+02  9.270324707e-01  -4.123840332e-01
4.920000000e+02  9.283142090e-01  -4.120178223e-01
4.935000000e+02  9.272766113e-01  -4.150390625e-01
4.950000000e+02  9.258728027e-01  -4.163208008e-01
4.965000000e+02  9.259948730e-01  -4.200744629e-01
4.980000000e+02  9.260864258e-01  -4.191894531e-01
4.995000000e+02  9.244995117e-01  -4.212646484e-01
5.010000000e+02  9.242553711e-01  -4.236450195e-01
5.025000000e+02  9.230346680e-01  -4.262084961e-01
5.040000000e+02  9.216918945e-01  -4.276733398e-01
5.055000000e+02  9.226074219e-01  -4.281005859e-01
5.070000000e+02  9.202270508e-01  -4.302368164e-01
5.085000000e+02  9.185791016e-01  -4.330444336e-01
5.100000000e+02  9.178466797e-01  -4.365844727e-01
5.115000000e+02  9.179077148e-01  -4.373779297e-01
5.130000000e+02  9.162597656e-01  -4.403076172e-01
5.145000000e+02  9.181518555e-01  -4.389648438e-01
5.160000000e+02  9.147949219e-01  -4.435424805e-01
5.175000000e+02  9.149780273e-01  -4.466552734e-01
5.190000000e+02  9.125976562e-01  -4.475097656e-01
5.205000000e+02  9.137573242e-01  -4.506835938e-01
5.220000000e+02  9.101562500e-01  -4.525146484e-01
5.235000000e+02  9.091186523e-01  -4.547119141e-01
5.250000000e+02  9.075317383e-01  -4.558105469e-01
5.265000000e+02  9.077148438e-01  -4.589233398e-01
5.280000000e+02  9.072875977e-01  -4.614257812e-01
5.295000000e+02  9.050903320e-01  -4.638061523e-01
5.310000000e+02  9.049682617e-01  -4.663085938e-01
5.325000000e+02  9.047241211e-01  -4.676513672e-01
5.340000000e+02  9.016723633e-01  -4.697875977e-01
5.355000000e+02  8.997802734e-01  -4.719848633e-01
5.370000000e+02  8.986816406e-01  -4.750976562e-01
5.385000000e+02  8.967895508e-01  -4.764404297e-01
5.400000000e+02  8.948974609e-01  -4.792480469e-01
5.415000000e+02  8.943481445e-01  -4.804687500e-01
5.430000000e+02  8.925170898e-01  -4.847412109e-01
5.445000000e+02  8.907165527e-01  -4.877319336e-01
5.460000000e+02  8.898010254e-01  -4.893798828e-01
5.475000000e+02  8.883666992e-01  -4.931335449e-01
5.490000000e+02  8.881225586e-01  -4.953613281e-01
5.505000000e+02  8.847045898e-01  -4.974365234e-01
5.520000000e+02  8.816528320e-01  -5.003662109e-01
5.535000000e+02  8.825378418e-01  -5.013732910e-01
5.550000000e+02  8.816528320e-01  -5.059509277e-01
5.565000000e+02  8.790283203e-01  -5.084533691e-01
5.580000000e+02  8.776245117e-01  -5.117187500e-01
5.595000000e+02  8.741149902e-01  -5.121459961e-01
5.610000000e+02  8.722229004e-01  -5.169372559e-01
5.625000000e+02  8.699035645e-01  -5.180969238e-01
5.640000000e+02  8.691406250e-01  -5.216064453e-01
5.655000000e+02  8.680419922e-01  -5.249633789e-01
5.670000000e+02  8.654174805e-01  -5.246582031e-01
5.685000000e+02  8.638916016e-01  -5.284423828e-01
5.700000000e+02  8.611450195e-01  -5.326538086e-01
5.715000000e+02  8.583984375e-01  -5.322875977e-01
5.730000000e+02  8.563232422e-01  -5.390014648e-01
5.745000000e+02  8.546752930e-01  -5.367431641e-01
5.760000000e+02  8.516235352e-01  -5.410766602e-01
5.775000000e+02  8.502197266e-01  -5.444335938e-01
5.790000000e+02  8.476562500e-01  -5.462646484e-01
5.805000000e+02  8.464355469e-01  -5.469970703e-01
5.820000000e+02  8.436279297e-01  -5.493774414e-01
5.835000000e+02  8.426513672e-01  -5.479125977e-01
5.850000000e+02  8.374023438e-01  -5.535888672e-01
5.865000000e+02  8.375854492e-01  -5.546875000e-01
5.880000000e+02  8.364257812e-01  -5.628662109e-01
5.895000000e+02  8.338012695e-01  -5.615234375e-01
5.910000000e+02  8.324584961e-01  -5.634765625e-01
5.925000000e+02  8.291015625e-01  -5.662231445e-01
5.940000000e+02  8.295898438e-01  -5.694580078e-01
5.955000000e+02  8.253784180e-01  -5.716552734e-01
5.970000000e+02  8.243408203e-01  -5.709838867e-01
5.985000000e+02  8.215942383e-01  -5.737304688e-01
6.000000000e+02  8.204956055e-01  -5.761718750e-01
6.015000000e+02  8.182983398e-01  -5.790405273e-01
6.030000000e+02  8.163452148e-01  -5.814208984e-01
6.045000000e+02  8.139038086e-01  -5.832824707e-01
6.060000000e+02  8.142700195e-01  -5.863342285e-01
6.075000000e+02  8.087158203e-01  -5.878601074e-01
6.090000000e+02  8.063354492e-01  -5.883789062e-01
6.105000000e+02  8.063049316e-01  -5.909423828e-01
6.120000000e+02  8.032226562e-01  -5.958251953e-01
6.135000000e+02  7.990722656e-01  -5.957031250e-01
6.150000000e+02  8.014221191e-01  -5.946655273e-01
6.165000000e+02  7.972412109e-01  -5.987548828e-01
6.180000000e+02  7.982177734e-01  -5.989379883e-01
6.195000000e+02  7.925109863e-01  -6.048583984e-01
6.210000000e+02  7.910766602e-01  -6.061706543e-01
6.225000000e+02  7.885742188e-01  -6.104125977e-01
6.240000000e+02  7.870178223e-01  -6.121826172e-01
6.255000000e+02  7.839965820e-01  -6.132812500e-01
6.270000000e+02  7.813110352e-01  -6.173706055e-01
6.285000000e+02  7.807617188e-01  -6.174316406e-01
6.300000000e+02  7.781372070e-01  -6.205444336e-01
6.315000000e+02  7.760009766e-01  -6.247558594e-01
6.330000000e+02  7.735595703e-01  -6.239013672e-01
6.345000000e+02  7.723999023e-01  -6.267700195e-01
6.360000000e+02  7.686157227e-01  -6.303100586e-01
6.375000000e+02  7.655029297e-01  -6.328125000e-01
6.390000000e+02  7.646484375e-01  -6.361694336e-01
6.405000000e+02  7.608032227e-01  -6.381225586e-01
6.420000000e+02  7.586669922e-01  -6.418457031e-01
6.435000000e+02  7.561035156e-01  -6.457519531e-01
6.450000000e+02  7.534179688e-01  -6.478271484e-01
6.465000000e+02  7.493896484e-01  -6.518554688e-01
6.480000000e+02  7.470703125e-01  -6.541137695e-01
6.495000000e+02  7.464599609e-01  -6.564331055e-01
6.510000000e+02  7.394409180e-01  -6.611938477e-01
6.525000000e+02  7.380371094e-01  -6.616210938e-01
6.540000000e+02  7.302246094e-01  -6.644897461e-01
6.555000000e+02  7.290649414e-01  -6.676635742e-01
6.570000000e+02  7.232666016e-01  -6.691284180e-01
6.585000000e+02  7.218627930e-01  -6.739501953e-01
6.600000000e+02  7.160644531e-01  -6.753540039e-01
6.615000000e+02  7.128295898e-01  -6.793212891e-01
6.630000000e+02  7.087402344e-01  -6.813964844e-01
6.645000000e+02  7.065124512e-01  -6.854248047e-01
6.660000000e+02  7.013854980e-01  -6.876525879e-01
6.675000000e+02  6.967468262e-01  -6.900329590e-01
6.690000000e+02  6.928100586e-01  -6.928710938e-01
6.705000000e+02  6.885070801e-01  -6.974487305e-01
6.720000000e+02  6.842346191e-01  -6.996459961e-01
6.735000000e+02  6.793823242e-01  -7.022094727e-01
6.750000000e+02  6.738891602e-01  -7.045593262e-01
6.765000000e+02  6.711425781e-01  -7.083129883e-01
6.780000000e+02  6.651611328e-01  -7.114562988e-01
6.795000000e+02  6.595153809e-01  -7.129211426e-01
6.810000000e+02  6.549377441e-01  -7.182922363e-01
6.825000000e+02  6.486816406e-01  -7.180480957e-01
6.840000000e+02  6.424865723e-01  -7.200012207e-01
6.855000000e+02  6.388854980e-01  -7.207336426e-01
6.870000000e+02  6.329345703e-01  -7.238769531e-01
6.885000000e+02  6.296386719e-01  -7.250671387e-01
6.900000000e+02  6.232604980e-01  -7.294921875e-01
6.915000000e+02  6.178588867e-01  -7.308349609e-01
6.930000000e+02  6.130371094e-01  -7.322998047e-01
6.945000000e+02  6.086425781e-01  -7.352294922e-01
6.960000000e+02  6.017456055e-01  -7.350463867e-01
6.975000000e+02  5.977172852e-01  -7.389526367e-01
6.990000000e+02  5.922851562e-01  -7.411499023e-01
7.005000000e+02  5.862426758e-01  -7.445068359e-01
7.020000000e+02  5.787963867e-01  -7.468872070e-01
7.035000000e+02  5.725708008e-01  -7.473754883e-01
7.050000000e+02  5.676269531e-01  -7.495727539e-01
7.065000000e+02  5.626220703e-01  -7.500610352e-01
7.080000000e+02  5.567016602e-01  -7.512817383e-01
7.095000000e+02  5.498046875e-01  -7.543945312e-01
7.110000000e+02  5.446166992e-01  -7.550048828e-01
7.125000000e+02  5.389404297e-01  -7.564697266e-01
7.140000000e+02  5.338745117e-01  -7.589721680e-01
7.155000000e+02  5.276794434e-01  -7.594909668e-01
7.170000000e+02  5.233764648e-01  -7.594299316e-01
7.185000000e+02  5.170288086e-01  -7.622070312e-01
7.200000000e+02  5.119934082e-01  -7.624816895e-01
7.215000000e+02  5.075378418e-01  -7.653198242e-01
7.230000000e+02  5.019226074e-01  -7.704467773e-01
7.245000000e+02  4.945373535e-01  -7.702636719e-01
7.260000000e+02  4.860839844e-01  -7.738647461e-01
7.275000000e+02  4.804077148e-01  -7.754211426e-01
7.290000000e+02  4.706726074e-01  -7.757873535e-01
7.305000000e+02  4.642333984e-01  -7.773437500e-01
7.320000000e+02  4.568481445e-01  -7.776794434e-01
7.335000000e+02  4.513549805e-01  -7.766113281e-01
7.350000000e+02  4.440002441e-01  -7.788696289e-01
7.365000000e+02  4.375000000e-01  -7.808227539e-01
7.380000000e+02  4.295959473e-01  -7.802429199e-01
7.395000000e+02  4.218444824e-01  -7.802429199e-01
7.410000000e+02  4.142150879e-01  -7.785949707e-01
7.425000000e+02  4.051513672e-01  -7.789611816e-01
7.440000000e+02  4.009399414e-01  -7.794494629e-01
7.455000000e+02  3.935546875e-01  -7.767028809e-01
7.470000000e+02  3.875427246e-01  -7.760620117e-01
7.485000000e+02  3.816528320e-01  -7.770385742e-01
7.500000000e+02  3.752136230e-01  -7.743835449e-01
7.515000000e+02  3.685913086e-01  -7.736206055e-01
7.530000000e+02  3.624877930e-01  -7.745971680e-01
7.545000000e+02  3.563232422e-01  -7.722778320e-01
7.560000000e+02  3.514404297e-01  -7.703247070e-01
7.575000000e+02  3.460083008e-01  -7.711181641e-01
7.590000000e+02  3.414306641e-01  -7.712402344e-01
7.605000000e+02  3.359375000e-01  -7.725830078e-01
7.620000000e+02  3.286743164e-01  -7.706909180e-01
7.635000000e+02  3.229980469e-01  -7.718505859e-01
7.650000000e+02  3.173828125e-01  -7.731933594e-01
7.665000000e+02  3.094482422e-01  -7.720336914e-01
7.680000000e+02  3.034667969e-01  -7.715454102e-01
7.695000000e+02  2.968139648e-01  -7.724609375e-01
7.710000000e+02  2.890014648e-01  -7.710571289e-01
7.725000000e+02  2.816162109e-01  -7.701110840e-01
7.740000000e+02  2.763977051e-01  -7.704467773e-01
7.755000000e+02  2.679748535e-01  -7.713928223e-01
7.770000000e+02  2.618408203e-01  -7.683715820e-01
7.785000000e+02  2.535400391e-01  -7.682800293e-01
7.800000000e+02  2.466430664e-01  -7.680969238e-01
7.815000000e+02  2.384948730e-01  -7.654724121e-01
7.830000000e+02  2.344055176e-01  -7.640075684e-01
7.845000000e+02  2.268981934e-01  -7.627563477e-01
7.860000000e+02  2.206420898e-01  -7.636718750e-01
7.875000000e+02  2.126159668e-01  -7.642517090e-01
7.890000000e+02  2.052612305e-01  -7.654418945e-01
7.905000000e+02  1.951599121e-01  -7.641906738e-01
7.920000000e+02  1.887207031e-01  -7.622985840e-01
7.935000000e+02  1.767883301e-01  -7.635192871e-01
7.950000000e+02  1.648559570e-01  -7.645874023e-01
7.965000000e+02  1.539001465e-01  -7.617797852e-01
7.980000000e+02  1.446228027e-01  -7.564086914e-01
7.995000000e+02  1.350097656e-01  -7.533264160e-01
8.010000000e+02  1.257629395e-01  -7.491149902e-01
8.025000000e+02  1.136779785e-01  -7.458801270e-01
8.040000000e+02  1.052856445e-01  -7.396545410e-01
8.055000000e+02  9.866333008e-02  -7.357788086e-01
8.070000000e+02  8.969116211e-02  -7.319641113e-01
8.085000000e+02  8.007812500e-02  -7.278442383e-01
8.100000000e+02  7.315063477e-02  -7.222595215e-01
8.115000000e+02  6.750488281e-02  -7.210998535e-01
8.130000000e+02  5.807495117e-02  -7.185363770e-01
8.145000000e+02  4.873657227e-02  -7.134094238e-01
8.160000000e+02  4.077148438e-02  -7.119750977e-01
8.175000000e+02  2.856445312e-02  -7.116088867e-01
8.190000000e+02  1.513671875e-02  -7.089233398e-01
8.205000000e+02  2.197265625e-03  -7.060546875e-01
8.220000000e+02  -1.293945312e-02  -6.978759766e-01
8.235000000e+02  -2.398681641e-02  -6.895141602e-01
8.250000000e+02  -3.485107422e-02  -6.818847656e-01
8.265000000e+02  -4.766845703e-02  -6.731567383e-01
8.280000000e+02  -5.761718750e-02  -6.647949219e-01
8.295000000e+02  -6.744384766e-02  -6.543579102e-01
8.310000000e+02  -7.666015625e-02  -6.453857422e-01
8.325000000e+02  -8.435058594e-02  -6.364135742e-01
8.340000000e+02  -9.384155273e-02  -6.266479492e-01
8.355000000e+02  -1.018981934e-01  -6.177673340e-01
8.370000000e+02  -1.084899902e-01  -6.111755371e-01
8.385000000e+02  -1.159057617e-01  -6.028747559e-01
8.400000000e+02  -1.245117188e-01  -5.974121094e-01
8.415000000e+02  -1.354675293e-01  -5.896301270e-01
8.430000000e+02  -1.465454102e-01  -5.821838379e-01
8.445000000e+02  -1.569519043e-01  -5.733032227e-01
8.460000000e+02  -1.690368652e-01  -5.650024414e-01
8.475000000e+02  -1.799011230e-01  -5.552673340e-01
8.490000000e+02  -1.937255859e-01  -5.434570312e-01
8.505000000e+02  -2.059020996e-01  -5.285339355e-01
8.520000000e+02  -2.185668945e-01  -5.141906738e-01
8.535000000e+02  -2.256469727e-01  -4.970397949e-01
8.550000000e+02  -2.321166992e-01  -4.834442139e-01
8.565000000e+02  -2.374114990e-01  -4.684600830e-01
8.580000000e+02  -2.441253662e-01  -4.535369873e-01
8.595000000e+02  -2.472991943e-01  -4.359436035e-01
8.610000000e+02  -2.483215332e-01  -4.226226807e-01
8.625000000e+02  -2.516479492e-01  -4.104461670e-01
8.640000000e+02  -2.558288574e-01  -3.978576660e-01
8.655000000e+02  -2.587127686e-01  -3.869476318e-01
8.670000000e+02  -2.615203857e-01  -3.746032715e-01
8.685000000e+02  -2.660064697e-01  -3.622894287e-01
8.700000000e+02  -2.695007324e-01  -3.495178223e-01
8.715000000e+02  -2.713165283e-01  -3.366241455e-01
8.730000000e+02  -2.747497559e-01  -3.246612549e-01
8.745000000e+02  -2.777709961e-01  -3.120574951e-01
8.760000000e+02  -2.776184082e-01  -2.988739014e-01
8.775000000e+02  -2.798309326e-01  -2.868499756e-01
8.790000000e+02  -2.793579102e-01  -2.778625488e-01
8.805000000e+02  -2.848815918e-01  -2.678222656e-01
8.820000000e+02  -2.876281738e-01  -2.549438477e-01
8.835000000e+02  -2.900390625e-01  -2.433776855e-01
8.850000000e+02  -2.922363281e-01  -2.302551270e-01
8.865000000e+02  -2.970275879e-01  -2.139587402e-01
8.880000000e+02  -2.967529297e-01  -2.008972168e-01
8.895000000e+02  -2.955322266e-01  -1.872558594e-01
8.910000000e+02  -2.930755615e-01  -1.712036133e-01
8.925000000e+02  -2.897338867e-01  -1.598358154e-01
8.940000000e+02  -2.868652344e-01  -1.468200684e-01
8.955000000e+02  -2.839813232e-01  -1.346130371e-01
8.970000000e+02  -2.793273926e-01  -1.256561279e-01
8.985000000e+02  -2.754516602e-01  -1.173553467e-01
9.000000000e+02  -2.738189697e-01  -1.094055176e-01
9.015000000e+02  -2.751922607e-01  -1.000671387e-01
9.030000000e+02  -2.742004395e-01  -9.104919434e-02
9.045000000e+02  -2.726898193e-01  -7.861328125e-02
9.060000000e+02  -2.726593018e-01  -6.628417969e-02
9.075000000e+02  -2.660369873e-01  -5.194091797e-02
9.090000000e+02  -2.618408203e-01  -4.382324219e-02
9.105000000e+02  -2.605895996e-01  -3.678894043e-02
9.120000000e+02  -2.570648193e-01  -2.578735352e-02
9.135000000e+02  -2.538299561e-01  -1.776123047e-02
9.150000000e+02  -2.511901855e-01  -7.202148438e-03
9.165000000e+02  -2.498474121e-01  3.646850586e-03
9.180000000e+02  -2.462768555e-01  1.525878906e-02
9.195000000e+02  -2.417449951e-01  2.619171143e-02
9.210000000e+02  -2.362747192e-01  3.589630127e-02
9.225000000e+02  -2.317657471e-01  4.441833496e-02
9.240000000e+02  -2.286529541e-01  5.262756348e-02
9.255000000e+02  -2.257766724e-01  6.286621094e-02
9.270000000e+02  -2.223968506e-01  7.400512695e-02
9.285000000e+02  -2.175750732e-01  8.401489258e-02
9.300000000e+02  -2.120742798e-01  9.278106689e-02
9.315000000e+02  -2.085723877e-01  1.033172607e-01
9.330000000e+02  -2.029571533e-01  1.152191162e-01
9.345000000e+02  -1.977539062e-01  1.260070801e-01
9.360000000e+02  -1.912994385e-01  1.358566284e-01
9.375000000e+02  -1.845245361e-01  1.454010010e-01
9.390000000e+02  -1.786499023e-01  1.538314819e-01
9.405000000e+02  -1.705551147e-01  1.632766724e-01
9.420000000e+02  -1.653518677e-01  1.729049683e-01
9.435000000e+02  -1.586151123e-01  1.829681396e-01
9.450000000e+02  -1.523437500e-01  1.920166016e-01
9.465000000e+02  -1.423034668e-01  2.026367188e-01
9.480000000e+02  -1.362152100e-01  2.134552002e-01
9.495000000e+02  -1.267089844e-01  2.210693359e-01
9.510000000e+02  -1.161193848e-01  2.290344238e-01
9.525000000e+02  -1.073608398e-01  2.433166504e-01
9.540000000e+02  -9.449768066e-02  2.496795654e-01
9.555000000e+02  -8.641052246e-02  2.520904541e-01
9.570000000e+02  -7.693481445e-02  2.568359375e-01
9.585000000e+02  -7.160949707e-02  2.589416504e-01
9.600000000e+02  -6.665039062e-02  2.665557861e-01
9.615000000e+02  -6.019592285e-02  2.758026123e-01
9.630000000e+02  -5.070495605e-02  2.828521729e-01
9.645000000e+02  -4.158020020e-02  2.892150879e-01
9.660000000e+02  -3.300476074e-02  2.951202393e-01
9.675000000e+02  -2.432250977e-02  3.001251221e-01
9.690000000e+02  -1.527404785e-02  3.047637939e-01
9.705000000e+02  -8.499145508e-03  3.087768555e-01
9.720000000e+02  -1.556396484e-03  3.146209717e-01
9.735000000e+02  5.905151367e-03  3.213043213e-01
9.750000000e+02  1.512145996e-02  3.264617920e-01
9.765000000e+02  2.427673340e-02  3.308868408e-01
9.780000000e+02  3.329467773e-02  3.335571289e-01
9.795000000e+02  4.176330566e-02  3.361511230e-01
9.810000000e+02  4.740905762e-02  3.385925293e-01
9.825000000e+02  5.314636230e-02  3.397064209e-01
9.840000000e+02  5.740356445e-02  3.428192139e-01
9.855000000e+02  6.100463867e-02  3.473358154e-01
9.870000000e+02  6.591796875e-02  3.529968262e-01
9.885000000e+02  7.051086426e-02  3.569335938e-01
9.900000000e+02  7.556152344e-02  3.631591797e-01
9.915000000e+02  8.116149902e-02  3.688812256e-01
9.930000000e+02  8.543395996e-02  3.756713867e-01
9.945000000e+02  9.475708008e-02  3.822937012e-01
9.960000000e+02  1.027526855e-01  3.879699707e-01
9.975000000e+02  1.104431152e-01  3.951568604e-01
9.990000000e+02  1.162414551e-01  3.986511230e-01
1.000500000e+03  1.251068115e-01  4.006805420e-01
1.002000000e+03  1.324310303e-01  4.091491699e-01
1.003500000e+03  1.421203613e-01  4.120788574e-01
1.005000000e+03  1.475830078e-01  4.094848633e-01
1.006500000e+03  1.568145752e-01  4.158020020e-01
1.008000000e+03  1.639099121e-01  4.183044434e-01
1.009500000e+03  1.705627441e-01  4.194335938e-01
1.011000000e+03  1.764831543e-01  4.228515625e-01
1.012500000e+03  1.821594238e-01  4.250488281e-01
1.014000000e+03  1.890106201e-01  4.293975830e-01
1.015500000e+03  1.949768066e-01  4.329528809e-01
1.017000000e+03  2.000274658e-01  4.346466064e-01
1.018500000e+03  2.067413330e-01  4.386749268e-01
1.020000000e+03  2.126312256e-01  4.410705566e-01
1.021500000e+03  2.207641602e-01  4.439392090e-01
1.023000000e+03  2.304077148e-01  4.467926025e-01
1.024500000e+03  2.397155762e-01  4.486999512e-01
1.026000000e+03  2.429199219e-01  4.503784180e-01
1.027500000e+03  2.533264160e-01  4.481201172e-01
1.029000000e+03  2.570190430e-01  4.502868652e-01
1.030500000e+03  2.660522461e-01  4.522705078e-01
1.032000000e+03  2.690429688e-01  4.528808594e-01
1.033500000e+03  2.745666504e-01  4.497680664e-01
1.035000000e+03  2.817077637e-01  4.560546875e-01
1.036500000e+03  2.882995605e-01  4.548950195e-01
1.038000000e+03  2.948303223e-01  4.533386230e-01
1.039500000e+03  3.002624512e-01  4.572448730e-01
1.041000000e+03  3.059997559e-01  4.575500488e-01
1.042500000e+03  3.151245117e-01  4.573669434e-01
1.044000000e+03  3.202209473e-01  4.571533203e-01
1.045500000e+03  3.265380859e-01  4.560852051e-01
1.047000000e+03  3.302307129e-01  4.565429688e-01
1.048500000e+03  3.370666504e-01  4.562377930e-01
1.050000000e+03  3.440856934e-01  4.581604004e-01
1.051500000e+03  3.496093750e-01  4.555053711e-01
1.053000000e+03  3.539428711e-01  4.579467773e-01
1.054500000e+03  3.600463867e-01  4.588623047e-01
1.056000000e+03  3.643188477e-01  4.610595703e-01
1.057500000e+03  3.750610352e-01  4.544677734e-01
1.059000000e+03  3.829345703e-01  4.573364258e-01
1.060500000e+03  3.911132812e-01  4.584960938e-01
1.062000000e+03  4.004516602e-01  4.569091797e-01
1.063500000e+03  4.071655273e-01  4.570312500e-01
1.065000000e+03  4.128417969e-01  4.524536133e-01
1.066500000e+03  4.214477539e-01  4.509277344e-01
1.068000000e+03  4.289550781e-01  4.470214844e-01
1.069500000e+03  4.364929199e-01  4.432067871e-01
1.071000000e+03  4.416809082e-01  4.425354004e-01
1.072500000e+03  4.478454590e-01  4.367065430e-01
1.074000000e+03  4.525756836e-01  4.330749512e-01
1.075500000e+03  4.560852051e-01  4.300231934e-01
1.077000000e+03  4.619445801e-01  4.281005859e-01
1.078500000e+03  4.657897949e-01  4.224243164e-01
1.080000000e+03  4.698791504e-01  4.210815430e-01
1.081500000e+03  4.750366211e-01  4.186706543e-01
1.083000000e+03  4.752197266e-01  4.137878418e-01
1.084500000e+03  4.802246094e-01  4.122619629e-01
1.086000000e+03  4.818725586e-01  4.071655273e-01
1.087500000e+03  4.850769043e-01  4.073181152e-01
1.089000000e+03  4.887390137e-01  4.087829590e-01
1.090500000e+03  4.918823242e-01  4.078979492e-01
1.092000000e+03  4.956359863e-01  4.064025879e-01
1.093500000e+03  5.002441406e-01  4.064025879e-01
1.095000000e+03  5.056152344e-01  4.052429199e-01
1.096500000e+03  5.075378418e-01  4.038391113e-01
1.098000000e+03  5.134582520e-01  4.013977051e-01
1.099500000e+03  5.164184570e-01  4.013671875e-01
1.101000000e+03  5.209655762e-01  4.017028809e-01
1.102500000e+03  5.247192383e-01  3.987731934e-01
1.104000000e+03  5.315551758e-01  3.991699219e-01
1.105500000e+03  5.321655273e-01  3.990478516e-01
1.107000000e+03  5.401611328e-01  3.984985352e-01
1.108500000e+03  5.430908203e-01  3.971557617e-01
1.110000000e+03  5.432739258e-01  3.945922852e-01
1.111500000e+03  5.513916016e-01  3.959960938e-01
1.113000000e+03  5.509033203e-01  3.960571289e-01
1.114500000e+03  5.612792969e-01  3.963012695e-01
1.116000000e+03  5.642089844e-01  3.933715820e-01
1.117500000e+03  5.682983398e-01  3.905029297e-01
1.119000000e+03  5.742187500e-01  3.871459961e-01
1.120500000e+03  5.788574219e-01  3.845214844e-01
1.122000000e+03  5.823364258e-01  3.801269531e-01
1.123500000e+03  5.835571289e-01  3.776855469e-01
1.125000000e+03  5.880737305e-01  3.741455078e-01
1.126500000e+03  5.913696289e-01  3.732299805e-01
1.128000000e+03  5.940551758e-01  3.669433594e-01
1.129500000e+03  5.948486328e-01  3.659057617e-01
1.131000000e+03  5.990905762e-01  3.626708984e-01
1.132500000e+03  5.993041992e-01  3.602905273e-01
1.134000000e+03  6.001281738e-01  3.575744629e-01
1.135500000e+03  6.010131836e-01  3.546447754e-01
1.137000000e+03  6.017456055e-01  3.540344238e-01
1.138500000e+03  5.999755859e-01  3.504028320e-01
1.140000000e+03  6.005859375e-01  3.503723145e-01
1.141500000e+03  6.005554199e-01  3.493347168e-01
1.143000000e+03  6.003417969e-01  3.491821289e-01
1.144500000e+03  6.001281738e-01  3.522033691e-01
1.146000000e+03  6.021728516e-01  3.514404297e-01
1.147500000e+03  6.056518555e-01  3.475952148e-01
1.149000000e+03  6.039428711e-01  3.507690430e-01
1.150500000e+03  6.051330566e-01  3.499755859e-01
1.152000000e+03  6.061096191e-01  3.504638672e-01
1.153500000e+03  6.064758301e-01  3.525085449e-01
1.155000000e+03  6.106262207e-01  3.527526855e-01
1.156500000e+03  6.119079590e-01  3.531494141e-01
1.158000000e+03  6.162109375e-01  3.534545898e-01
1.159500000e+03  6.191101074e-01  3.528137207e-01
1.161000000e+03  6.229248047e-01  3.537902832e-01
1.162500000e+03  6.281433105e-01  3.510131836e-01
1.164000000e+03  6.324462891e-01  3.477783203e-01
1.165500000e+03  6.340332031e-01  3.438110352e-01
1.167000000e+03  6.367797852e-01  3.432006836e-01
1.168500000e+03  6.340942383e-01  3.352050781e-01
1.170000000e+03  6.380004883e-01  3.330688477e-01
1.171500000e+03  6.387939453e-01  3.342285156e-01
1.173000000e+03  6.373291016e-01  3.298950195e-01
1.174500000e+03  6.361083984e-01  3.284912109e-01
1.176000000e+03  6.356201172e-01  3.292846680e-01
1.177500000e+03  6.395263672e-01  3.217773438e-01
1.179000000e+03  6.373291016e-01  3.253784180e-01
1.180500000e+03  6.387329102e-01  3.258666992e-01
1.182000000e+03  6.341552734e-01  3.252563477e-01
1.183500000e+03  6.385498047e-01  3.259277344e-01
1.185000000e+03  6.382446289e-01  3.238525391e-01
1.186500000e+03  6.411743164e-01  3.231811523e-01
1.188000000e+03  6.423339844e-01  3.242187500e-01
1.189500000e+03  6.442260742e-01  3.251342773e-01
1.191000000e+03  6.453247070e-01  3.247680664e-01
1.192500000e+03  6.482238770e-01  3.237304688e-01
1.194000000e+03  6.502990723e-01  3.243103027e-01
1.195500000e+03  6.537475586e-01  3.231201172e-01
1.197000000e+03  6.592712402e-01  3.210449219e-01
1.198500000e+03  6.615905762e-01  3.218383789e-01
1.200000000e+03  6.658325195e-01  3.186340332e-01
1.201500000e+03  6.665954590e-01  3.160705566e-01
1.203000000e+03  6.706542969e-01  3.153381348e-01
1.204500000e+03  6.745910645e-01  3.132019043e-01
1.206000000e+03  6.775207520e-01  3.108215332e-01
1.207500000e+03  6.794128418e-01  3.074645996e-01
1.209000000e+03  6.818237305e-01  3.043518066e-01
1.210500000e+03  6.844787598e-01  3.042907715e-01
1.212000000e+03  6.875000000e-01  3.026428223e-01
1.213500000e+03  6.898803711e-01  3.007812500e-01
1.215000000e+03  6.965332031e-01  2.985534668e-01
1.216500000e+03  6.987915039e-01  2.924804688e-01
1.218000000e+03  6.992797852e-01  2.891235352e-01
1.219500000e+03  7.019653320e-01  2.879028320e-01
1.221000000e+03  7.034912109e-01  2.848510742e-01
1.222500000e+03  7.064208984e-01  2.814941406e-01
1.224000000e+03  7.077026367e-01  2.807617188e-01
1.225500000e+03  7.086181641e-01  2.776489258e-01
1.227000000e+03  7.133178711e-01  2.739257812e-01
1.228500000e+03  7.138671875e-01  2.743530273e-01
1.230000000e+03  7.163696289e-01  2.709350586e-01
1.231500000e+03  7.178344727e-01  2.682495117e-01
1.233000000e+03  7.191162109e-01  2.671508789e-01
1.234500000e+03  7.208862305e-01  2.672119141e-01
1.236000000e+03  7.222900391e-01  2.647094727e-01
1.237500000e+03  7.255249023e-01  2.646484375e-01
1.239000000e+03  7.266235352e-01  2.623291016e-01
1.240500000e+03  7.316894531e-01  2.633666992e-01
1.242000000e+03  7.346801758e-01  2.614135742e-01
1.243500000e+03  7.399902344e-01  2.562866211e-01
1.245000000e+03  7.416992188e-01  2.545776367e-01
1.246500000e+03  7.413330078e-01  2.521972656e-01
1.248000000e+03  7.408447266e-01  2.525634766e-01
1.249500000e+03  7.433471680e-01  2.496337891e-01
1.251000000e+03  7.493896484e-01  2.439575195e-01
1.252500000e+03  7.451782227e-01  2.504272461e-01
1.254000000e+03  7.470703125e-01  2.446899414e-01
1.255500000e+03  7.506713867e-01  2.436523438e-01
1.257000000e+03  7.515869141e-01  2.434692383e-01
1.258500000e+03  7.542419434e-01  2.420349121e-01
1.260000000e+03  7.557678223e-01  2.433166504e-01
1.261500000e+03  7.581481934e-01  2.387084961e-01
1.263000000e+03  7.596435547e-01  2.385559082e-01
1.264500000e+03  7.616882324e-01  2.356262207e-01
1.266000000e+03  7.610778809e-01  2.356872559e-01
1.267500000e+03  7.647094727e-01  2.340698242e-01
1.269000000e+03  7.636718750e-01  2.339172363e-01
1.270500000e+03  7.648315430e-01  2.302551270e-01
1.272000000e+03  7.655334473e-01  2.317810059e-01
1.273500000e+03  7.658386230e-01  2.321472168e-01
1.275000000e+03  7.677612305e-01  2.309875488e-01
1.276500000e+03  7.701416016e-01  2.291870117e-01
1.278000000e+03  7.672119141e-01  2.332763672e-01
1.279500000e+03  7.723999023e-01  2.296752930e-01
1.281000000e+03  7.731933594e-01  2.274780273e-01
1.282500000e+03  7.745361328e-01  2.285156250e-01
1.284000000e+03  7.745971680e-01  2.235717773e-01
1.285500000e+03  7.731323242e-01  2.200927734e-01
1.287000000e+03  7.745361328e-01  2.255859375e-01
1.288500000e+03  7.754516602e-01  2.268676758e-01
1.290000000e+03  7.741699219e-01  2.234497070e-01
1.291500000e+03  7.749633789e-01  2.258300781e-01
1.293000000e+03  7.792358398e-01  2.219238281e-01
1.294500000e+03  7.772521973e-01  2.220458984e-01
1.296000000e+03  7.802734375e-01  2.204589844e-01
1.297500000e+03  7.800292969e-01  2.210693359e-01
1.299000000e+03  7.816772461e-01  2.222290039e-01
1.300500000e+03  7.822875977e-01  2.211914062e-01
1.302000000e+03  7.835693359e-01  2.234497070e-01
1.303500000e+03  7.854003906e-01  2.220458984e-01
1.305000000e+03  7.870483398e-01  2.188110352e-01
1.306500000e+03  7.889404297e-01  2.192993164e-01
1.308000000e+03  7.901000977e-01  2.156372070e-01
1.309500000e+03  7.924804688e-01  2.160034180e-01
1.311000000e+03  7.927856445e-01  2.132568359e-01
1.312500000e+03  7.943725586e-01  2.094726562e-01
1.314000000e+03  7.940673828e-01  2.088012695e-01
1.315500000e+03  7.960205078e-01  2.072143555e-01
1.317000000e+03  7.974853516e-01  2.061767578e-01
1.318500000e+03  7.984619141e-01  2.047729492e-01
1.320000000e+03  7.994995117e-01  2.003173828e-01
1.321500000e+03  7.998657227e-01  1.980590820e-01
1.323000000e+03  7.988891602e-01  1.972351074e-01
1.324500000e+03  7.989501953e-01  1.915283203e-01
1.326000000e+03  7.968750000e-01  1.878967285e-01
1.327500000e+03  7.995910645e-01  1.919860840e-01
1.329000000e+03  8.008728027e-01  1.878967285e-01
1.330500000e+03  8.052673340e-01  1.864013672e-01
1.332000000e+03  8.029174805e-01  1.862487793e-01
1.333500000e+03  8.045043945e-01  1.837768555e-01
1.335000000e+03  8.003845215e-01  1.800231934e-01
1.336500000e+03  8.047485352e-01  1.809082031e-01
1.338000000e+03  8.010864258e-01  1.779174805e-01
1.339500000e+03  8.040161133e-01  1.745605469e-01
1.341000000e+03  8.055419922e-01  1.724243164e-01
1.342500000e+03  8.071289062e-01  1.710815430e-01
1.344000000e+03  8.067016602e-01  1.641845703e-01
1.345500000e+03  8.094482422e-01  1.636962891e-01
1.347000000e+03  8.098144531e-01  1.646118164e-01
1.348500000e+03  8.098754883e-01  1.609497070e-01
1.350000000e+03  8.124389648e-01  1.571044922e-01
1.351500000e+03  8.131103516e-01  1.546630859e-01
1.353000000e+03  8.176269531e-01  1.508789062e-01
1.354500000e+03  8.177490234e-01  1.477661133e-01
1.356000000e+03  8.169555664e-01  1.429748535e-01
1.357500000e+03  8.174438477e-01  1.420288086e-01
1.359000000e+03  8.165893555e-01  1.376953125e-01
1.360500000e+03  8.182983398e-01  1.367797852e-01
1.362000000e+03  8.202514648e-01  1.336059570e-01
1.363500000e+03  8.186645508e-01  1.301879883e-01
1.365000000e+03  8.212280273e-01  1.279296875e-01
1.366500000e+03  8.203735352e-01  1.282958984e-01
1.368000000e+03  8.195800781e-01  1.243896484e-01
1.369500000e+03  8.218383789e-01  1.195678711e-01
1.371000000e+03  8.176879883e-01  1.188354492e-01
1.372500000e+03  8.201293945e-01  1.165771484e-01
1.374000000e+03  8.183593750e-01  1.180419922e-01
1.375500000e+03  8.226928711e-01  1.130981445e-01
1.377000000e+03  8.208618164e-01  1.172485352e-01
1.378500000e+03  8.230590820e-01  1.097412109e-01
1.380000000e+03  8.206176758e-01  1.098632812e-01
1.381500000e+03  8.193359375e-01  1.092529297e-01
1.383000000e+03  8.193969727e-01  1.121826172e-01
1.384500000e+03  8.209838867e-01  1.123352051e-01
1.386000000e+03  8.213806152e-01  1.124267578e-01
1.387500000e+03  8.257446289e-01  1.117553711e-01
1.389000000e+03  8.255615234e-01  1.126403809e-01
1.390500000e+03  8.271484375e-01  1.126403809e-01
1.392000000e+03  8.291931152e-01  1.118469238e-01
1.393500000e+03  8.322143555e-01  1.122131348e-01
1.395000000e+03  8.330383301e-01  1.122436523e-01
1.396500000e+03  8.370971680e-01  1.119384766e-01
1.398000000e+03  8.344116211e-01  1.106567383e-01
1.399500000e+03  8.376464844e-01  1.122436523e-01
1.401000000e+03  8.419799805e-01  1.113281250e-01
1.402500000e+03  8.443603516e-01  1.115722656e-01
1.404000000e+03  8.457641602e-01  1.118774414e-01
1.405500000e+03  8.445434570e-01  1.080322266e-01
1.407000000e+03  8.479003906e-01  1.088256836e-01
1.408500000e+03  8.493041992e-01  1.087036133e-01
1.410000000e+03  8.500366211e-01  1.058349609e-01
1.411500000e+03  8.517456055e-01  1.077880859e-01
1.413000000e+03  8.534545898e-01  1.091308594e-01
1.414500000e+03  8.500976562e-01  1.079711914e-01
1.416000000e+03  8.541259766e-01  1.106567383e-01
1.417500000e+03  8.550415039e-01  1.097412109e-01
1.419000000e+03  8.555297852e-01  1.114196777e-01
1.420500000e+03  8.568115234e-01  1.117553711e-01
1.422000000e+03  8.593750000e-01  1.125488281e-01
1.423500000e+03  8.593750000e-01  1.139526367e-01
1.425000000e+03  8.553466797e-01  1.115722656e-01
1.426500000e+03  8.634643555e-01  1.161499023e-01
1.428000000e+03  8.646850586e-01  1.160278320e-01
1.429500000e+03  8.686523438e-01  1.158447266e-01
1.431000000e+03  8.681640625e-01  1.134033203e-01
1.432500000e+03  8.750000000e-01  1.137695312e-01
1.434000000e+03  8.746948242e-01  1.140747070e-01
1.435500000e+03  8.772583008e-01  1.064453125e-01
1.437000000e+03  8.787231445e-01  1.095581055e-01
1.438500000e+03  8.789672852e-01  1.082763672e-01
1.440000000e+03  8.771362305e-01  1.074829102e-01
1.441500000e+03  8.803710938e-01  1.066284180e-01
1.443000000e+03  8.796386719e-01  1.068725586e-01
1.444500000e+03  8.799438477e-01  1.054687500e-01
1.446000000e+03  8.803710938e-01  1.038208008e-01
1.447500000e+03  8.820800781e-01  1.041870117e-01
1.449000000e+03  8.826904297e-01  1.022949219e-01
1.450500000e+03  8.835144043e-01  9.973144531e-02
1.452000000e+03  8.831176758e-01  1.010742188e-01
1.453500000e+03  8.858337402e-01  9.716796875e-02
1.455000000e+03  8.855590820e-01  9.631347656e-02
1.456500000e+03  8.857421875e-01  9.539794922e-02
1.458000000e+03  8.857421875e-01  9.338378906e-02
1.459500000e+03  8.870239258e-01  9.130859375e-02
1.461000000e+03  8.855590820e-01  8.850097656e-02
1.462500000e+03  8.848266602e-01  8.843994141e-02
1.464000000e+03  8.837280273e-01  8.538818359e-02
1.465500000e+03  8.844604492e-01  8.453369141e-02
1.467000000e+03  8.836669922e-01  8.349609375e-02
1.468500000e+03  8.844604492e-01  8.099365234e-02
1.470000000e+03  8.823242188e-01  8.044433594e-02
1.471500000e+03  8.836669922e-01  7.989501953e-02
1.473000000e+03  8.859252930e-01  7.757568359e-02
1.474500000e+03  8.845214844e-01  7.733154297e-02
1.476000000e+03  8.866577148e-01  7.574462891e-02
1.477500000e+03  8.839721680e-01  6.756591797e-02
1.479000000e+03  8.840942383e-01  6.799316406e-02
1.480500000e+03  8.869018555e-01  6.524658203e-02
1.482000000e+03  8.852539062e-01  6.561279297e-02
1.483500000e+03  8.843994141e-01  5.957031250e-02
1.485000000e+03  8.845214844e-01  5.834960938e-02
1.486500000e+03  8.816528320e-01  5.841064453e-02
1.488000000e+03  8.854980469e-01  5.603027344e-02
1.489500000e+03  8.856201172e-01  5.346679688e-02
1.491000000e+03  8.859863281e-01  5.163574219e-02
1.492500000e+03  8.861083984e-01  4.937744141e-02
1.494000000e+03  8.843383789e-01  4.760742188e-02
1.495500000e+03  8.829956055e-01  4.522705078e-02
1.497000000e+03  8.859252930e-01  4.412841797e-02
1.498500000e+03  8.845825195e-01  4.376220703e-02
1.500000000e+03  8.858032227e-01  4.119873047e-02
