! Free-space dipole, 1.0 m, 20.0 mm radius
! resonance 135.44 MHz, antenna Q 2.9, fractional bandwidth 10%
! generated with NEC via necpp
# MHZ S MA R 50
   128.6662  0.219237   -51.2532
   128.8920  0.214626   -50.0433
   129.1177  0.210213   -48.7650
   129.3434  0.206009   -47.4179
   129.5692  0.202024   -46.0017
   129.7949  0.198272   -44.5173
   130.0206  0.194762   -42.9657
   130.2464  0.191507   -41.3490
   130.4721  0.188515   -39.6700
   130.6978  0.185798   -37.9324
   130.9235  0.183365   -36.1407
   131.1493  0.181223   -34.3002
   131.3750  0.179379   -32.4173
   131.6007  0.177839   -30.4988
   131.8265  0.176606   -28.5524
   132.0522  0.175684   -26.5864
   132.2779  0.175072   -24.6092
   132.5037  0.174769   -22.6297
   132.7294  0.174773   -20.6565
   132.9551  0.175077   -18.6983
   133.1808  0.175676   -16.7632
   133.4066  0.176562   -14.8590
   133.6323  0.177725   -12.9926
   133.8580  0.179155   -11.1704
   134.0838  0.180840    -9.3977
   134.3095  0.182768    -7.6792
   134.5352  0.184926    -6.0185
   134.7610  0.187302    -4.4186
   134.9867  0.189880    -2.8814
   135.2124  0.192650    -1.4084
   135.4382  0.195596    -0.0000
   135.6639  0.198706     1.3436
   135.8896  0.201968     2.6229
   136.1153  0.205370     3.8388
   136.3411  0.208899     4.9927
   136.5668  0.212545     6.0859
   136.7925  0.216297     7.1204
   137.0183  0.220146     8.0981
   137.2440  0.224080     9.0211
   137.4697  0.228093     9.8914
   137.6955  0.232175    10.7114
   137.9212  0.236319    11.4832
   138.1469  0.240518    12.2090
   138.3726  0.244763    12.8910
   138.5984  0.249051    13.5313
   138.8241  0.253373    14.1320
   139.0498  0.257726    14.6951
   139.2756  0.262104    15.2225
   139.5013  0.266502    15.7160
   139.7270  0.270915    16.1774
   139.9528  0.275341    16.6085
   140.1785  0.279775    17.0107
   140.4042  0.284213    17.3858
   140.6299  0.288653    17.7350
   140.8557  0.293091    18.0599
   141.0814  0.297525    18.3616
   141.3071  0.301953    18.6415
   141.5329  0.306371    18.9007
   141.7586  0.310778    19.1404
   141.9843  0.315172    19.3615
   142.2101  0.319551    19.5651
