! Free-space dipole, 1.0 m, 5.0 mm radius
! resonance 140.22 MHz, antenna Q 5.1, fractional bandwidth 50%
! generated with NEC via necpp
# MHZ S MA R 50
   105.1639  0.926589   -28.2957
   106.3324  0.919445   -29.2423
   107.5008  0.911547   -30.2345
   108.6693  0.902811   -31.2745
   109.8378  0.893142   -32.3649
   111.0063  0.882435   -33.5078
   112.1748  0.870577   -34.7052
   113.3433  0.857443   -35.9590
   114.5118  0.842896   -37.2702
   115.6803  0.826793   -38.6392
   116.8487  0.808978   -40.0656
   118.0172  0.789294   -41.5470
   119.1857  0.767577   -43.0795
   120.3542  0.743671   -44.6564
   121.5227  0.717425   -46.2673
   122.6912  0.688710   -47.8972
   123.8597  0.657427   -49.5250
   125.0282  0.623523   -51.1210
   126.1966  0.587005   -52.6442
   127.3651  0.547963   -54.0384
   128.5336  0.506589   -55.2259
   129.7021  0.463202   -56.0982
   130.8706  0.418284   -56.5024
   132.0391  0.372521   -56.2185
   133.2076  0.326876   -54.9248
   134.3761  0.282713   -52.1502
   135.5445  0.242010   -47.2287
   136.7130  0.207657   -39.3529
   137.8815  0.183564   -28.0079
   139.0500  0.173715   -14.0142
   140.2185  0.179570     0.0000
   141.3870  0.198537    11.4514
   142.5555  0.226034    19.5811
   143.7240  0.258075    24.9188
   144.8924  0.291998    28.2552
   146.0609  0.326190    30.2311
   147.2294  0.359705    31.2921
   148.3979  0.391995    31.7354
   149.5664  0.422759    31.7594
   150.7349  0.451848    31.4977
   151.9034  0.479207    31.0417
   153.0719  0.504845    30.4550
   154.2403  0.528807    29.7821
   155.4088  0.551164    29.0548
   156.5773  0.572000    28.2958
   157.7458  0.591406    27.5214
   158.9143  0.609476    26.7431
   160.0828  0.626303    25.9694
   161.2513  0.641977    25.2062
   162.4198  0.656584    24.4575
   163.5882  0.670205    23.7262
   164.7567  0.682916    23.0141
   165.9252  0.694788    22.3223
   167.0937  0.705885    21.6514
   168.2622  0.716269    21.0015
   169.4307  0.725995    20.3726
   170.5992  0.735113    19.7642
   171.7677  0.743671    19.1760
   172.9361  0.751711    18.6074
   174.1046  0.759273    18.0577
   175.2731  0.766391    17.5262
