! Free-space dipole, 1.0 m, 5.0 mm radius
! resonance 140.22 MHz, antenna Q 5.1, fractional bandwidth 25%
! generated with NEC via necpp
# MHZ S MA R 50
   122.6912  0.688710   -47.8972
   123.2754  0.673394   -48.7130
   123.8597  0.657427   -49.5250
   124.4439  0.640804   -50.3292
   125.0282  0.623523   -51.1210
   125.6124  0.605587   -51.8948
   126.1966  0.587005   -52.6442
   126.7809  0.567790   -53.3617
   127.3651  0.547963   -54.0384
   127.9494  0.527551   -54.6639
   128.5336  0.506589   -55.2259
   129.1179  0.485121   -55.7097
   129.7021  0.463202   -56.0982
   130.2864  0.440897   -56.3707
   130.8706  0.418284   -56.5024
   131.4548  0.395456   -56.4637
   132.0391  0.372521   -56.2185
   132.6233  0.349610   -55.7231
   133.2076  0.326876   -54.9248
   133.7918  0.304503   -53.7594
   134.3761  0.282713   -52.1502
   134.9603  0.261773   -50.0072
   135.5445  0.242010   -47.2287
   136.1288  0.223817   -43.7087
   136.7130  0.207657   -39.3529
   137.2973  0.194056   -34.1087
   137.8815  0.183564   -28.0079
   138.4658  0.176674   -21.2099
   139.0500  0.173715   -14.0142
   139.6343  0.174756    -6.8144
   140.2185  0.179570     0.0000
   140.8027  0.187693     6.1385
   141.3870  0.198537    11.4514
   141.9712  0.211499    15.9137
   142.5555  0.226034    19.5811
   143.1397  0.241683    22.5480
   143.7240  0.258075    24.9188
   144.3082  0.274922    26.7922
   144.8924  0.291998    28.2552
   145.4767  0.309132    29.3813
   146.0609  0.326190    30.2311
   146.6452  0.343073    30.8545
   147.2294  0.359705    31.2921
   147.8137  0.376026    31.5767
   148.3979  0.391995    31.7354
   148.9822  0.407580    31.7903
   149.5664  0.422759    31.7594
   150.1506  0.437518    31.6578
   150.7349  0.451848    31.4977
   151.3191  0.465745    31.2895
   151.9034  0.479207    31.0417
   152.4876  0.492239    30.7615
   153.0719  0.504845    30.4550
   153.6561  0.517031    30.1271
   154.2403  0.528807    29.7821
   154.8246  0.540181    29.4237
   155.4088  0.551164    29.0548
   155.9931  0.561766    28.6781
   156.5773  0.572000    28.2958
   157.1616  0.581876    27.9097
   157.7458  0.591406    27.5214
