! Free-space dipole, 1.0 m, 0.2 mm radius
! resonance 145.02 MHz, antenna Q 9.3, fractional bandwidth 50%
! generated with NEC via necpp
# MHZ S MA R 50
   108.7657  0.975265   -15.7909
   109.9742  0.972685   -16.3714
   111.1827  0.969791   -16.9875
   112.3912  0.966539   -17.6423
   113.5997  0.962873   -18.3397
   114.8083  0.958732   -19.0836
   116.0168  0.954041   -19.8786
   117.2253  0.948711   -20.7298
   118.4338  0.942639   -21.6429
   119.6423  0.935700   -22.6242
   120.8508  0.927746   -23.6806
   122.0593  0.918599   -24.8198
   123.2678  0.908049   -26.0499
   124.4763  0.895843   -27.3800
   125.6848  0.881679   -28.8192
   126.8933  0.865200   -30.3768
   128.1018  0.845983   -32.0615
   129.3104  0.823535   -33.8802
   130.5189  0.797290   -35.8363
   131.7274  0.766613   -37.9269
   132.9359  0.730819   -40.1376
   134.1444  0.689218   -42.4355
   135.3529  0.641186   -44.7561
   136.5614  0.586288   -46.9826
   137.7699  0.524469   -48.9088
   138.9784  0.456320   -50.1693
   140.1869  0.383491   -50.1000
   141.3954  0.309419   -47.4438
   142.6039  0.240916   -39.8088
   143.8124  0.191398   -23.6794
   145.0210  0.180299    -0.0000
   146.2295  0.211729    20.0009
   147.4380  0.266929    30.9564
   148.6465  0.329424    35.8138
   149.8550  0.391333    37.4752
   151.0635  0.449325    37.5032
   152.2720  0.502126    36.6923
   153.4805  0.549430    35.4596
   154.6890  0.591416    34.0327
   155.8975  0.628487    32.5385
   157.1060  0.661136    31.0482
   158.3145  0.689875    29.6016
   159.5231  0.715190    28.2193
   160.7316  0.737526    26.9111
   161.9401  0.757276    25.6803
   163.1486  0.774788    24.5261
   164.3571  0.790360    23.4459
   165.5656  0.804250    22.4357
   166.7741  0.816678    21.4908
   167.9826  0.827834    20.6067
   169.1911  0.837879    19.7789
   170.3996  0.846951    19.0028
   171.6081  0.855170    18.2743
   172.8166  0.862637    17.5897
   174.0251  0.869440    16.9454
   175.2337  0.875654    16.3381
   176.4422  0.881346    15.7649
   177.6507  0.886572    15.2231
   178.8592  0.891383    14.7103
   180.0677  0.895820    14.2242
   181.2762  0.899923    13.7628
