! Free-space dipole, 1.0 m, 0.2 mm radius
! resonance 145.02 MHz, antenna Q 9.3, fractional bandwidth 10%
! generated with NEC via necpp
# MHZ S MA R 50
   137.7699  0.524469   -48.9088
   138.0116  0.511312   -49.2298
   138.2533  0.497906   -49.5212
   138.4950  0.484264   -49.7784
   138.7367  0.470397   -49.9963
   138.9784  0.456320   -50.1693
   139.2201  0.442051   -50.2909
   139.4618  0.427609   -50.3537
   139.7035  0.413017   -50.3494
   139.9452  0.398301   -50.2684
   140.1869  0.383491   -50.1000
   140.4286  0.368622   -49.8317
   140.6703  0.353732   -49.4493
   140.9120  0.338866   -48.9366
   141.1537  0.324075   -48.2751
   141.3954  0.309419   -47.4438
   141.6371  0.294965   -46.4189
   141.8788  0.280790   -45.1735
   142.1205  0.266986   -43.6783
   142.3622  0.253654   -41.9012
   142.6039  0.240916   -39.8088
   142.8456  0.228905   -37.3681
   143.0873  0.217774   -34.5493
   143.3290  0.207692   -31.3305
   143.5707  0.198839   -27.7031
   143.8124  0.191398   -23.6794
   144.0541  0.185544   -19.2985
   144.2958  0.181429   -14.6307
   144.5376  0.179160    -9.7760
   144.7793  0.178788    -4.8560
   145.0210  0.180299    -0.0000
   145.2627  0.183610     4.6716
   145.5044  0.188589     9.0606
   145.7461  0.195063    13.0988
   145.9878  0.202841    16.7492
   146.2295  0.211729    20.0009
   146.4712  0.221542    22.8635
   146.7129  0.232110    25.3593
   146.9546  0.243282    27.5181
   147.1963  0.254926    29.3728
   147.4380  0.266929    30.9564
   147.6797  0.279194    32.3002
   147.9214  0.291640    33.4332
   148.1631  0.304198    34.3815
   148.4048  0.316809    35.1682
   148.6465  0.329424    35.8138
   148.8882  0.342003    36.3360
   149.1299  0.354510    36.7506
   149.3716  0.366916    37.0710
   149.6133  0.379197    37.3091
   149.8550  0.391333    37.4752
   150.0967  0.403305    37.5783
   150.3384  0.415101    37.6262
   150.5801  0.426709    37.6258
   150.8218  0.438120    37.5830
   151.0635  0.449325    37.5032
   151.3052  0.460320    37.3910
   151.5469  0.471100    37.2504
   151.7886  0.481663    37.0850
   152.0303  0.492005    36.8980
   152.2720  0.502126    36.6923
