! Free-space dipole, 1.0 m, 1.0 mm radius
! resonance 143.42 MHz, antenna Q 7.2, fractional bandwidth 25%
! generated with NEC via necpp
# MHZ S MA R 50
   125.4965  0.801362   -37.3314
   126.0941  0.789222   -38.2063
   126.6917  0.776289   -39.1030
   127.2893  0.762516   -40.0203
   127.8869  0.747857   -40.9568
   128.4845  0.732268   -41.9100
   129.0821  0.715706   -42.8772
   129.6797  0.698130   -43.8546
   130.2773  0.679502   -44.8374
   130.8749  0.659790   -45.8196
   131.4725  0.638970   -46.7935
   132.0701  0.617025   -47.7497
   132.6677  0.593951   -48.6762
   133.2653  0.569756   -49.5582
   133.8630  0.544465   -50.3773
   134.4606  0.518122   -51.1105
   135.0582  0.490798   -51.7286
   135.6558  0.462588   -52.1951
   136.2534  0.433622   -52.4635
   136.8510  0.404072   -52.4739
   137.4486  0.374157   -52.1495
   138.0462  0.344161   -51.3901
   138.6438  0.314451   -50.0657
   139.2414  0.285501   -48.0082
   139.8390  0.257934   -45.0066
   140.4366  0.232570   -40.8123
   141.0342  0.210464   -35.1766
   141.6318  0.192902   -27.9486
   142.2294  0.181253   -19.2489
   142.8270  0.176601    -9.6284
   143.4246  0.179286    -0.0000
   144.0222  0.188693     8.7312
   144.6198  0.203534    16.0297
   145.2174  0.222334    21.7865
   145.8150  0.243781    26.1561
   146.4126  0.266849    29.3854
   147.0102  0.290785    31.7178
   147.6078  0.315049    33.3590
   148.2054  0.339259    34.4709
   148.8030  0.363145    35.1780
   149.4006  0.386518    35.5748
   149.9982  0.409249    35.7332
   150.5958  0.431250    35.7082
   151.1934  0.452464    35.5419
   151.7910  0.472861    35.2670
   152.3886  0.492423    34.9089
   152.9862  0.511151    34.4877
   153.5838  0.529052    34.0190
   154.1814  0.546141    33.5153
   154.7790  0.562441    32.9865
   155.3766  0.577977    32.4404
   155.9742  0.592775    31.8833
   156.5718  0.606865    31.3203
   157.1694  0.620278    30.7554
   157.7670  0.633044    30.1916
   158.3647  0.645193    29.6316
   158.9623  0.656757    29.0773
   159.5599  0.667764    28.5302
   160.1575  0.678242    27.9917
   160.7551  0.688220    27.4625
   161.3527  0.697724    26.9433
