! Free-space dipole, 1.0 m, 1.0 mm radius
! resonance 143.42 MHz, antenna Q 7.2, fractional bandwidth 10%
! generated with NEC via necpp
# MHZ S MA R 50
   136.2534  0.433622   -52.4635
   136.4924  0.421861   -52.5025
   136.7314  0.410019   -52.4959
   136.9705  0.398110   -52.4386
   137.2095  0.386150   -52.3252
   137.4486  0.374157   -52.1495
   137.6876  0.362150   -51.9044
   137.9266  0.350150   -51.5825
   138.1657  0.338183   -51.1752
   138.4047  0.326273   -50.6731
   138.6438  0.314451   -50.0657
   138.8828  0.302748   -49.3415
   139.1219  0.291202   -48.4878
   139.3609  0.279854   -47.4909
   139.5999  0.268747   -46.3358
   139.8390  0.257934   -45.0066
   140.0780  0.247471   -43.4866
   140.3171  0.237420   -41.7591
   140.5561  0.227850   -39.8076
   140.7951  0.218838   -37.6174
   141.0342  0.210464   -35.1766
   141.2732  0.202816   -32.4780
   141.5123  0.195984   -29.5213
   141.7513  0.190057   -26.3155
   141.9903  0.185121   -22.8806
   142.2294  0.181253   -19.2489
   142.4684  0.178512   -15.4652
   142.7075  0.176942   -11.5852
   142.9465  0.176558    -7.6713
   143.1855  0.177351    -3.7889
   143.4246  0.179286    -0.0000
   143.6636  0.182305     3.6406
   143.9027  0.186330     7.0892
   144.1417  0.191274    10.3144
   144.3808  0.197041    13.2973
   144.6198  0.203534    16.0297
   144.8588  0.210658    18.5125
   145.0979  0.218324    20.7533
   145.3369  0.226448    22.7640
   145.5760  0.234956    24.5596
   145.8150  0.243781    26.1561
   146.0540  0.252861    27.5704
   146.2931  0.262146    28.8186
   146.5321  0.271587    29.9164
   146.7712  0.281146    30.8783
   147.0102  0.290785    31.7178
   147.2492  0.300476    32.4473
   147.4883  0.310191    33.0777
   147.7273  0.319906    33.6193
   147.9664  0.329601    34.0810
   148.2054  0.339259    34.4709
   148.4445  0.348864    34.7965
   148.6835  0.358403    35.0641
   148.9225  0.367865    35.2796
   149.1616  0.377239    35.4483
   149.4006  0.386518    35.5748
   149.6397  0.395693    35.6634
   149.8787  0.404759    35.7177
   150.1177  0.413710    35.7414
   150.3568  0.422541    35.7372
   150.5958  0.431250    35.7082
