! Free-space dipole, 1.0 m, 1.0 mm radius
! resonance 143.42 MHz, antenna Q 7.2, fractional bandwidth 50%
! generated with NEC via necpp
# MHZ S MA R 50
   107.5684  0.960246   -20.2704
   108.7636  0.956185   -20.9947
   109.9589  0.951653   -21.7603
   111.1541  0.946583   -22.5706
   112.3493  0.940904   -23.4292
   113.5445  0.934529   -24.3401
   114.7397  0.927360   -25.3074
   115.9349  0.919283   -26.3358
   117.1301  0.910167   -27.4300
   118.3253  0.899861   -28.5949
   119.5205  0.888190   -29.8357
   120.7157  0.874955   -31.1573
   121.9109  0.859927   -32.5644
   123.1061  0.842850   -34.0610
   124.3013  0.823434   -35.6498
   125.4965  0.801362   -37.3314
   126.6917  0.776289   -39.1030
   127.8869  0.747857   -40.9568
   129.0821  0.715706   -42.8772
   130.2773  0.679502   -44.8374
   131.4725  0.638970   -46.7935
   132.6677  0.593951   -48.6762
   133.8630  0.544465   -50.3773
   135.0582  0.490798   -51.7286
   136.2534  0.433622   -52.4635
   137.4486  0.374157   -52.1495
   138.6438  0.314451   -50.0657
   139.8390  0.257934   -45.0066
   141.0342  0.210464   -35.1766
   142.2294  0.181253   -19.2489
   143.4246  0.179286    -0.0000
   144.6198  0.203534    16.0297
   145.8150  0.243781    26.1561
   147.0102  0.290785    31.7178
   148.2054  0.339259    34.4709
   149.4006  0.386518    35.5748
   150.5958  0.431250    35.7082
   151.7910  0.472861    35.2670
   152.9862  0.511151    34.4877
   154.1814  0.546141    33.5153
   155.3766  0.577977    32.4404
   156.5718  0.606865    31.3203
   157.7670  0.633044    30.1916
   158.9623  0.656757    29.0773
   160.1575  0.678242    27.9917
   161.3527  0.697724    26.9433
   162.5479  0.715410    25.9369
   163.7431  0.731488    24.9745
   164.9383  0.746129    24.0568
   166.1335  0.759484    23.1831
   167.3287  0.771689    22.3520
   168.5239  0.782865    21.5620
   169.7191  0.793118    20.8110
   170.9143  0.802542    20.0970
   172.1095  0.811222    19.4178
   173.3047  0.819231    18.7715
   174.4999  0.826635    18.1560
   175.6951  0.833493    17.5695
   176.8903  0.839855    17.0100
   178.0855  0.845769    16.4759
   179.2807  0.851274    15.9656
