! Free-space dipole, 1.0 m, 0.2 mm radius
! resonance 145.02 MHz, antenna Q 9.3, fractional bandwidth 25%
! generated with NEC via necpp
# MHZ S MA R 50
   126.8933  0.865200   -30.3768
   127.4976  0.855963   -31.2028
   128.1018  0.845983   -32.0615
   128.7061  0.835197   -32.9538
   129.3104  0.823535   -33.8802
   129.9146  0.810926   -34.8411
   130.5189  0.797290   -35.8363
   131.1231  0.782547   -36.8654
   131.7274  0.766613   -37.9269
   132.3316  0.749399   -39.0187
   132.9359  0.730819   -40.1376
   133.5401  0.710786   -41.2788
   134.1444  0.689218   -42.4355
   134.7486  0.666039   -43.5987
   135.3529  0.641186   -44.7561
   135.9571  0.614610   -45.8913
   136.5614  0.586288   -46.9826
   137.1657  0.556226   -48.0012
   137.7699  0.524469   -48.9088
   138.3742  0.491114   -49.6543
   138.9784  0.456320   -50.1693
   139.5827  0.420330   -50.3605
   140.1869  0.383491   -50.1000
   140.7912  0.346293   -49.2103
   141.3954  0.309419   -47.4438
   141.9997  0.273836   -44.4591
   142.6039  0.240916   -39.8088
   143.2082  0.212591   -32.9908
   143.8124  0.191398   -23.6794
   144.4167  0.180059   -12.2195
   145.0210  0.180299    -0.0000
   145.6252  0.191651    11.1266
   146.2295  0.211729    20.0009
   146.8337  0.237630    26.4788
   147.4380  0.266929    30.9564
   148.0422  0.297909    33.9290
   148.6465  0.329424    35.8138
   149.2507  0.360727    36.9218
   149.8550  0.391333    37.4752
   150.4592  0.420929    37.6316
   151.0635  0.449325    37.5032
   151.6677  0.476409    37.1706
   152.2720  0.502126    36.6923
   152.8763  0.526462    36.1114
   153.4805  0.549430    35.4596
   154.0848  0.571066    34.7608
   154.6890  0.591416    34.0327
   155.2933  0.610536    33.2886
   155.8975  0.628487    32.5385
   156.5018  0.645332    31.7898
   157.1060  0.661136    31.0482
   157.7103  0.675963    30.3178
   158.3145  0.689875    29.6016
   158.9188  0.702932    28.9016
   159.5231  0.715190    28.2193
   160.1273  0.726705    27.5556
   160.7316  0.737526    26.9111
   161.3358  0.747701    26.2860
   161.9401  0.757276    25.6803
   162.5443  0.766292    25.0938
   163.1486  0.774788    24.5261
