! Free-space dipole, 1.0 m, 5.0 mm radius
! resonance 140.22 MHz, antenna Q 5.1, fractional bandwidth 10%
! generated with NEC via necpp
# MHZ S MA R 50
   133.2076  0.326876   -54.9248
   133.4413  0.317872   -54.5067
   133.6750  0.308939   -54.0253
   133.9087  0.300090   -53.4757
   134.1424  0.291343   -52.8526
   134.3761  0.282713   -52.1502
   134.6098  0.274218   -51.3625
   134.8435  0.265879   -50.4832
   135.0772  0.257715   -49.5057
   135.3109  0.249751   -48.4232
   135.5445  0.242010   -47.2287
   135.7782  0.234520   -45.9155
   136.0119  0.227309   -44.4769
   136.2456  0.220406   -42.9069
   136.4793  0.213844   -41.2003
   136.7130  0.207657   -39.3529
   136.9467  0.201878   -37.3625
   137.1804  0.196545   -35.2287
   137.4141  0.191692   -32.9540
   137.6478  0.187354   -30.5440
   137.8815  0.183564   -28.0079
   138.1152  0.180353   -25.3585
   138.3489  0.177745   -22.6127
   138.5826  0.175761   -19.7908
   138.8163  0.174416   -16.9161
   139.0500  0.173715   -14.0142
   139.2837  0.173658   -11.1117
   139.5174  0.174235    -8.2350
   139.7511  0.175429    -5.4095
   139.9848  0.177217    -2.6579
   140.2185  0.179570     0.0000
   140.4522  0.182453     2.5481
   140.6859  0.185831     4.9741
   140.9196  0.189663     7.2694
   141.1533  0.193912     9.4292
   141.3870  0.198537    11.4514
   141.6207  0.203500    13.3366
   141.8544  0.208765    15.0874
   142.0881  0.214297    16.7081
   142.3218  0.220063    18.2040
   142.5555  0.226034    19.5811
   142.7892  0.232183    20.8461
   143.0229  0.238483    22.0057
   143.2566  0.244912    23.0666
   143.4903  0.251449    24.0355
   143.7240  0.258075    24.9188
   143.9577  0.264773    25.7226
   144.1914  0.271528    26.4529
   144.4251  0.278325    27.1151
   144.6588  0.285152    27.7142
   144.8924  0.291998    28.2552
   145.1261  0.298853    28.7424
   145.3598  0.305707    29.1799
   145.5935  0.312553    29.5716
   145.8272  0.319383    29.9209
   146.0609  0.326190    30.2311
   146.2946  0.332969    30.5052
   146.5283  0.339715    30.7459
   146.7620  0.346422    30.9558
   146.9957  0.353086    31.1371
   147.2294  0.359705    31.2921
