! Free-space dipole, 1.0 m, 20.0 mm radius
! resonance 135.44 MHz, antenna Q 2.9, fractional bandwidth 25%
! generated with NEC via necpp
# MHZ S MA R 50
   118.5084  0.506733   -63.3384
   119.0727  0.490358   -63.7568
   119.6370  0.473778   -64.1205
   120.2014  0.457024   -64.4216
   120.7657  0.440128   -64.6513
   121.3300  0.423129   -64.7993
   121.8943  0.406067   -64.8543
   122.4587  0.388988   -64.8031
   123.0230  0.371940   -64.6310
   123.5873  0.354979   -64.3210
   124.1516  0.338167   -63.8538
   124.7160  0.321572   -63.2076
   125.2803  0.305269   -62.3576
   125.8446  0.289344   -61.2760
   126.4089  0.273895   -59.9320
   126.9733  0.259029   -58.2923
   127.5376  0.244869   -56.3218
   128.1019  0.231554   -53.9860
   128.6662  0.219237   -51.2532
   129.2306  0.208084   -48.1001
   129.7949  0.198272   -44.5173
   130.3592  0.189977   -40.5171
   130.9235  0.183365   -36.1407
   131.4879  0.178571   -31.4620
   132.0522  0.175684   -26.5864
   132.6165  0.174733   -21.6418
   133.1808  0.175676   -16.7632
   133.7452  0.178408   -12.0756
   134.3095  0.182768    -7.6792
   134.8738  0.188566    -3.6421
   135.4382  0.195596    -0.0000
   136.0025  0.203652     3.2387
   136.5668  0.212545     6.0859
   137.1311  0.222103     8.5663
   137.6955  0.232175    10.7114
   138.2598  0.242635    12.5554
   138.8241  0.253373    14.1320
   139.3884  0.264300    15.4733
   139.9528  0.275341    16.6085
   140.5171  0.286433    17.5635
   141.0814  0.297525    18.3616
   141.6457  0.308576    19.0230
   142.2101  0.319551    19.5651
   142.7744  0.330421    20.0034
   143.3387  0.341165    20.3512
   143.9030  0.351763    20.6198
   144.4674  0.362201    20.8193
   145.0317  0.372468    20.9584
   145.5960  0.382553    21.0445
   146.1603  0.392452    21.0843
   146.7247  0.402157    21.0835
   147.2890  0.411666    21.0470
   147.8533  0.420977    20.9793
   148.4176  0.430088    20.8841
   148.9820  0.439000    20.7649
   149.5463  0.447712    20.6247
   150.1106  0.456226    20.4660
   150.6749  0.464544    20.2911
   151.2393  0.472668    20.1022
   151.8036  0.480601    19.9010
   152.3679  0.488345    19.6891
