! Free-space dipole, 1.0 m, 20.0 mm radius
! resonance 135.44 MHz, antenna Q 2.9, fractional bandwidth 50%
! generated with NEC via necpp
# MHZ S MA R 50
   101.5786  0.845783   -43.8839
   102.7073  0.832373   -45.1254
   103.8359  0.817859   -46.4005
   104.9646  0.802171   -47.7073
   106.0932  0.785241   -49.0433
   107.2219  0.767006   -50.4049
   108.3505  0.747408   -51.7873
   109.4792  0.726395   -53.1843
   110.6078  0.703931   -54.5878
   111.7365  0.679989   -55.9878
   112.8651  0.654565   -57.3715
   113.9938  0.627674   -58.7232
   115.1224  0.599357   -60.0232
   116.2511  0.569685   -61.2472
   117.3797  0.538763   -62.3648
   118.5084  0.506733   -63.3384
   119.6370  0.473778   -64.1205
   120.7657  0.440128   -64.6513
   121.8943  0.406067   -64.8543
   123.0230  0.371940   -64.6310
   124.1516  0.338167   -63.8538
   125.2803  0.305269   -62.3576
   126.4089  0.273895   -59.9320
   127.5376  0.244869   -56.3218
   128.6662  0.219237   -51.2532
   129.7949  0.198272   -44.5173
   130.9235  0.183365   -36.1407
   132.0522  0.175684   -26.5864
   133.1808  0.175676   -16.7632
   134.3095  0.182768    -7.6792
   135.4382  0.195596    -0.0000
   136.5668  0.212545     6.0859
   137.6955  0.232175    10.7114
   138.8241  0.253373    14.1320
   139.9528  0.275341    16.6085
   141.0814  0.297525    18.3616
   142.2101  0.319551    19.5651
   143.3387  0.341165    20.3512
   144.4674  0.362201    20.8193
   145.5960  0.382553    21.0445
   146.7247  0.402157    21.0835
   147.8533  0.420977    20.9793
   148.9820  0.439000    20.7649
   150.1106  0.456226    20.4660
   151.2393  0.472668    20.1022
   152.3679  0.488345    19.6891
   153.4966  0.503282    19.2390
   154.6252  0.517505    18.7613
   155.7539  0.531044    18.2637
   156.8825  0.543930    17.7523
   158.0112  0.556193    17.2318
   159.1398  0.567864    16.7062
   160.2685  0.578974    16.1784
   161.3971  0.589552    15.6509
   162.5258  0.599625    15.1256
   163.6544  0.609221    14.6040
   164.7831  0.618366    14.0873
   165.9117  0.627085    13.5764
   167.0404  0.635400    13.0719
   168.1690  0.643335    12.5744
   169.2977  0.650909    12.0843
