!File created by NanoVNA
# Hz S RI R 50
300000000  0.977840128 -0.231518016
303000000  0.976475456 -0.233194464
306000000  0.977172864 -0.235187152
309000000  0.975784000 -0.237785504
312000000  0.990445312 -0.194910048
315000000  0.974537344 -0.243607280
318000000  0.974334592 -0.245922208
321000000  0.973344512 -0.248709056
324000000  0.972182400 -0.252498720
327000000  0.970804032 -0.256083216
330000000  0.971372288 -0.259089088
333000000  0.970448896 -0.262300704
336000000  0.968594240 -0.266619712
339000000  0.968992640 -0.267665776
342000000  0.968403328 -0.272380576
345000000  0.967982272 -0.275266816
348000000  0.967213184 -0.279524256
351000000  0.959304896 -0.278047808
354000000  0.964944448 -0.283968512
357000000  0.964103744 -0.286165920
360000000  0.962415552 -0.289682208
363000000  0.962134272 -0.291436416
366000000  0.960072384 -0.294177120
369000000  0.958885824 -0.297370528
372000000  0.957267136 -0.299907488
375000000  0.955351680 -0.303651072
378000000  0.953837888 -0.305103648
381000000  0.953267008 -0.310404352
384000000  0.950912704 -0.311754848
387000000  0.949323776 -0.315678944
390000000  0.937074944 -0.294304096
393000000  0.947361024 -0.321761824
396000000  0.944636928 -0.323907296
399000000  0.945160512 -0.330279872
402000000  0.945247424 -0.334573504
405000000  0.943783872 -0.336872448
408000000  0.942199424 -0.341342464
411000000  0.941963008 -0.344418912
414000000  0.940579840 -0.348933920
417000000  0.940072064 -0.351189632
420000000  0.938599872 -0.354994176
423000000  0.937377024 -0.358024160
426000000  0.934521600 -0.361645792
429000000  0.907483328 -0.342856960
432000000  0.931824064 -0.367495552
435000000  0.929620800 -0.370777952
438000000  0.928182656 -0.374577696
441000000  0.926608256 -0.376493856
444000000  0.924964928 -0.379326624
447000000  0.923938112 -0.383002336
450000000  0.923074304 -0.386036352
453000000  0.920429184 -0.389175424
456000000  0.919634496 -0.392929248
459000000  0.916797184 -0.396821888
462000000  0.916337728 -0.400762720
465000000  0.916024960 -0.403949472
468000000  0.915095616 -0.409267552
471000000  0.913125888 -0.411621728
474000000  0.909944064 -0.415479264
477000000  0.908573696 -0.418836192
480000000  0.906676032 -0.421550784
483000000  0.903990528 -0.425880672
486000000  0.901767936 -0.428695008
489000000  0.900344128 -0.431629888
492000000  0.897795456 -0.434317312
495000000  0.895145088 -0.437821088
498000000  0.892599360 -0.441196928
501000000  0.890584576 -0.442573216
504000000  0.887441856 -0.447224384
507000000  0.881640128 -0.457587232
510000000  0.884274560 -0.454741920
513000000  0.879351936 -0.457277696
516000000  0.877172608 -0.462883360
519000000  0.873417984 -0.465162816
522000000  0.872947712 -0.471761248
525000000  0.869200320 -0.478350560
528000000  0.867503872 -0.483859328
531000000  0.866738560 -0.487519616
534000000  0.861858688 -0.494230784
537000000  0.858654144 -0.497225760
540000000  0.857284032 -0.503616864
543000000  0.853975808 -0.507306208
546000000  0.854208128 -0.511318848
549000000  0.847907264 -0.515112512
552000000  0.844394624 -0.520305504
555000000  0.841791360 -0.525495712
558000000  0.839372544 -0.530634880
561000000  0.837845760 -0.534980064
564000000  0.836743424 -0.539081664
567000000  0.833388160 -0.545193856
570000000  0.831661312 -0.549989824
573000000  0.832055808 -0.554865152
576000000  0.828784064 -0.560398016
579000000  0.825740288 -0.561210176
582000000  0.825124992 -0.567505152
585000000  0.823257664 -0.566674496
588000000  0.820582080 -0.573342976
591000000  0.817174464 -0.577856768
594000000  0.814994368 -0.582070144
597000000  0.811882048 -0.584195648
600000000  0.810788032 -0.588366912
603000000  0.806736448 -0.591815616
606000000  0.802647360 -0.594532288
609000000  0.799332800 -0.598007552
612000000  0.794231616 -0.600616256
615000000  0.790653696 -0.604900224
618000000  0.784556992 -0.608984832
621000000  0.780823232 -0.614508480
624000000  0.793959104 -0.627316992
627000000  0.769249280 -0.621924224
630000000  0.763946304 -0.626851776
633000000  0.752303616 -0.629910336
636000000  0.748643840 -0.636373760
639000000  0.741792000 -0.641222144
642000000  0.736382336 -0.648353536
645000000  0.726266496 -0.654911296
648000000  0.719218240 -0.660940160
651000000  0.711424256 -0.668038144
654000000  0.700929216 -0.672939520
657000000  0.692529344 -0.677661568
660000000  0.686125952 -0.685135360
663000000  0.676621056 -0.670146176
666000000  0.665711296 -0.694319040
669000000  0.656656064 -0.700261248
672000000  0.645842944 -0.706203264
675000000  0.636307840 -0.711674496
678000000  0.626735552 -0.717729408
681000000  0.616556224 -0.721569920
684000000  0.608037632 -0.727397056
687000000  0.595943168 -0.732183744
690000000  0.587036224 -0.734450560
693000000  0.576544320 -0.738894464
696000000  0.567843200 -0.742919104
699000000  0.557168192 -0.743542528
702000000  0.539062656 -0.758390336
705000000  0.538351488 -0.747419648
708000000  0.529769728 -0.747541120
711000000  0.518380832 -0.748057408
714000000  0.512744064 -0.751149568
717000000  0.503699072 -0.753071296
720000000  0.493096480 -0.754964416
723000000  0.481992768 -0.758812928
726000000  0.466535360 -0.762792832
729000000  0.451227712 -0.763446336
732000000  0.438469824 -0.763837952
735000000  0.424388096 -0.765488768
738000000  0.408954848 -0.766715008
741000000  0.389288320 -0.762403136
744000000  0.376930080 -0.765651392
747000000  0.363004608 -0.762290304
750000000  0.345029856 -0.760023744
753000000  0.332930432 -0.756861440
756000000  0.321142528 -0.754688832
759000000  0.307718752 -0.752101952
762000000  0.294879328 -0.755754624
765000000  0.280949728 -0.756346496
768000000  0.267797952 -0.760995776
771000000  0.251732832 -0.762173952
774000000  0.235632528 -0.768038784
777000000  0.215673024 -0.769059584
780000000  0.201052272 -0.777529536
783000000  0.181446400 -0.768607424
786000000  0.165293424 -0.769159232
789000000  0.149200624 -0.771063232
792000000  0.132164864 -0.773020160
795000000  0.114207184 -0.772079744
798000000  0.094339080 -0.770062336
801000000  0.076924024 -0.763445440
804000000  0.063308016 -0.757262208
807000000  0.051787952 -0.750604608
810000000  0.039260368 -0.741646528
813000000  0.028654180 -0.735003520
816000000  0.018251894 -0.725828224
819000000  0.002269441 -0.719209024
822000000 -0.010602516 -0.708445952
825000000 -0.021137818 -0.694977472
828000000 -0.032234290 -0.678545728
831000000 -0.039023692 -0.662690560
834000000 -0.050271748 -0.644824704
837000000 -0.058712972 -0.628180160
840000000 -0.070234296 -0.613840576
843000000 -0.082107544 -0.596028864
846000000 -0.098148048 -0.579382400
849000000 -0.118549120 -0.555345088
852000000 -0.136613088 -0.525696160
855000000 -0.149987184 -0.493937984
858000000 -0.165235344 -0.458766720
861000000 -0.172683136 -0.430719392
864000000 -0.178518880 -0.400368160
867000000 -0.192111408 -0.374384640
870000000 -0.200877872 -0.344257216
873000000 -0.206424624 -0.316284864
876000000 -0.213734144 -0.292101376
879000000 -0.221386256 -0.268229184
882000000 -0.234343888 -0.241256640
885000000 -0.241325776 -0.214081776
888000000 -0.243987952 -0.185977872
891000000 -0.241982672 -0.159563328
894000000 -0.242290688 -0.138991520
897000000 -0.240274992 -0.119260144
900000000 -0.238120832 -0.100912656
903000000 -0.253167904 -0.153798096
906000000 -0.250980672 -0.135098704
909000000 -0.243551728 -0.115749904
912000000 -0.228787472 -0.095410176
915000000 -0.228015584 -0.078119392
918000000 -0.215971472 -0.052053732
921000000 -0.203285648 -0.031451804
924000000 -0.188467392 -0.013028045
927000000 -0.177956688  0.013804204
930000000 -0.157760224  0.036904452
933000000 -0.137392368  0.058437112
936000000 -0.116120096  0.073708720
939000000 -0.100689888  0.088762760
942000000 -0.080274480  0.105534616
945000000 -0.063612460  0.116510536
948000000 -0.038237916  0.137268352
951000000 -0.024274220  0.154341184
954000000  0.007666942  0.166161168
957000000  0.025242508  0.181749680
960000000  0.046460996  0.188867248
963000000  0.065242648  0.200240336
966000000  0.088503304  0.214740736
969000000  0.104552936  0.232586272
972000000  0.125209976  0.239264944
975000000  0.160322704  0.300850048
978000000  0.161925968  0.270409568
981000000  0.174806048  0.277841632
984000000  0.187612720  0.291469728
987000000  0.197467040  0.299243616
990000000  0.206418656  0.317792448
993000000  0.216905008  0.334731296
996000000  0.228656816  0.345532480
999000000  0.241265952  0.356268768
1002000000  0.247452832  0.367924352
1005000000  0.253971968  0.378484832
1008000000  0.256016608  0.382868512
1011000000  0.257338640  0.386301440
1014000000  0.256081312  0.385271616
1017000000  0.248123760  0.396371808
1020000000  0.254124400  0.399544992
1023000000  0.247736736  0.409978080
1026000000  0.248636400  0.405864352
1029000000  0.250952336  0.399061376
1032000000  0.248931360  0.408703616
1035000000  0.245440304  0.402697248
1038000000  0.254585952  0.397121248
1041000000  0.252762848  0.397009408
1044000000  0.252373312  0.388814464
1047000000  0.257545296  0.375576064
1050000000  0.266259760  0.374122784
1053000000  0.265847840  0.353898528
1056000000  0.283861344  0.354167104
1059000000  0.293872256  0.345056608
1062000000  0.307761280  0.335029536
1065000000  0.324542144  0.318255200
1068000000  0.332010976  0.302370528
1071000000  0.352851072  0.302771136
1074000000  0.374879040  0.284332768
1077000000  0.382545120  0.275426528
1080000000  0.398315264  0.260331984
1083000000  0.412345920  0.253685856
1086000000  0.431056992  0.245688016
1089000000  0.444190400  0.231987984
1092000000  0.440684320  0.220600816
1095000000  0.466964928  0.220351584
1098000000  0.481940640  0.218295904
1101000000  0.503110720  0.213068496
1104000000  0.516423520  0.213473296
1107000000  0.524875520  0.202574864
1110000000  0.543048128  0.197363904
1113000000  0.547220352  0.204999008
1116000000  0.557982400  0.203695456
1119000000  0.570038656  0.193201136
1122000000  0.574144448  0.206208320
1125000000  0.583130496  0.199689664
1128000000  0.583001344  0.197908480
1131000000  0.579860288  0.209108912
1134000000  0.578400832  0.205968112
1137000000  0.571893760  0.197154592
1140000000  0.575418880  0.198021744
1143000000  0.578305408  0.212581536
1146000000  0.558597952  0.206673104
1149000000  0.560217408  0.201876976
1152000000  0.559528704  0.209237440
1155000000  0.550969152  0.205544512
1158000000  0.546187456  0.197389328
1161000000  0.550236672  0.219814496
1164000000  0.553059072  0.202011792
1167000000  0.557361792  0.199884944
1170000000  0.586986304  0.179980592
1173000000  0.548821696  0.186558688
1176000000  0.558146304  0.187073856
1179000000  0.557726208  0.194666464
1182000000  0.555215744  0.196676672
1185000000  0.566172608  0.195619856
1188000000  0.559164224  0.219100880
1191000000  0.568816896  0.217663520
1194000000  0.580175168  0.222030896
1197000000  0.581233152  0.229494768
1200000000  0.578153792  0.209052192
1203000000  0.577996992  0.209739120
1206000000  0.576444224  0.209543280
1209000000  0.573686784  0.208553792
1212000000  0.570036288  0.206606784
1215000000  0.565800192  0.203322784
1218000000  0.561243712  0.198293216
1221000000  0.556603584  0.191270080
1224000000  0.552113472  0.182291136
1227000000  0.547981760  0.171618336
1230000000  0.544368576  0.159574192
1233000000  0.541361536  0.146315520
1236000000  0.539030656  0.131772560
1239000000  0.537518912  0.115822464
1242000000  0.537139392  0.098695552
1245000000  0.538340992  0.081235656
1248000000  0.541544768  0.064659232
1251000000  0.546910720  0.049924080
1254000000  0.554222080  0.037340796
1257000000  0.562951488  0.026829984
1260000000  0.572479616  0.018410094
1263000000  0.582287360  0.012266187
1266000000  0.592029568  0.008354052
1269000000  0.601473536  0.006257036
1272000000  0.610435648  0.005454947
1275000000  0.618771584  0.005572470
1278000000  0.626433344  0.006372330
1281000000  0.633507776  0.007637662
1284000000  0.640191104  0.009139734
1287000000  0.646700416  0.010739306
1290000000  0.653144512  0.012441847
1293000000  0.659433088  0.014304940
1296000000  0.665251264  0.016336075
1299000000  0.670185408  0.018471910
1302000000  0.673909696  0.020629040
1305000000  0.676367488  0.022714476
1308000000  0.677781824  0.024625268
1311000000  0.678514112  0.026245104
1314000000  0.678836608  0.027501190
1317000000  0.678768128  0.028412758
1320000000  0.678071680  0.029121268
1323000000  0.676407040  0.029851798
1326000000  0.673565760  0.030826570
1329000000  0.669602944  0.032160898
1332000000  0.664804608  0.033798088
1335000000  0.659508352  0.035534984
1338000000  0.653964096  0.037136844
1341000000  0.648304576  0.038482320
1344000000  0.642629952  0.039623208
1347000000  0.637064256  0.040722952
1350000000  0.631761216  0.041948136
1353000000  0.626853248  0.043420044
1356000000  0.622440448  0.045265960
1359000000  0.618565504  0.047708608
1362000000  0.615189376  0.051097912
1365000000  0.612116032  0.055839228
1368000000  0.609001728  0.062249060
1371000000  0.605445504  0.070417520
1374000000  0.601169600  0.080128696
1377000000  0.596100672  0.090879912
1380000000  0.590344512  0.101965016
1383000000  0.584046912  0.112583808
1386000000  0.577311872  0.121943336
1389000000  0.570149824  0.129352736
1392000000  0.562521344  0.134294544
1395000000  0.554396736  0.136442672
1398000000  0.545895744  0.135652640
1401000000  0.537351104  0.131928552
1404000000  0.529261664  0.125311328
1407000000  0.522070400  0.115643856
1410000000  0.515979712  0.102405448
1413000000  0.510954080  0.085300024
1416000000  0.506948704  0.065621840
1419000000  0.504153024  0.046836296
1422000000  0.503009920  0.032510282
1425000000  0.503971168  0.023993458
1428000000  0.507161248  0.020729344
1431000000  0.512226048 -0.022122396
1434000000  0.518459680 -0.028576028
1437000000  0.525154944 -0.041230908
1440000000  0.531920256 -0.060404272
1443000000  0.538790016 -0.084076280
1446000000  0.546053888 -0.108573224
1449000000  0.553984384 -0.130945448
1452000000  0.562633856 -0.149873488
1455000000  0.571810048 -0.164949312
1458000000  0.581167168 -0.176011536
1461000000  0.590315968 -0.183185856
1464000000  0.598940800 -0.186989424
1467000000  0.606909184 -0.188111232
1470000000  0.614359232 -0.187054416
1473000000  0.621622400 -0.183967760
1476000000  0.629016704 -0.178847104
1479000000  0.636602560 -0.171853856
1482000000  0.644142592 -0.163477536
1485000000  0.651236096 -0.154351808
1488000000  0.657533632 -0.144978496
1491000000  0.662834176 -0.135578768
1494000000  0.667109952 -0.126211184
1497000000  0.670514944 -0.116969272
1500000000  0.673412416 -0.108093624
