! Dipole antenna, 100-200 MHz, reflection coefficient at the feedpoint.
! Same measurement as gam/dipole.gam and sch/Dipole.sch - Example 4.
# MHZ S MA R 50
  100.0000  0.590000    -86.2710
  105.0000  0.530000    -61.9870
  110.0000  0.590000    -72.2680
  120.0000  0.581000    -56.4560
  130.0000  0.490000    -81.7600
  140.0000  0.372000   -102.6220
  150.0000  0.236000   -112.8000
  160.0000  0.183000   -119.7530
  170.0000  0.187000   -122.8900
  180.0000  0.231000   -117.1200
  190.0000  0.244000   -128.0000
  200.0000  0.344000   -140.9800
